Arup

Steel Design
Vieerendeel Roof
Example

File Steel_Design_Complex.gwb
Exported 04/12/2014 13:36:00

GSA 8.7.0.36 64-bit Copyright © Oasys 1985-2014

Beam Derived Stresses
Stresses are calculated only for elements that have unmodified Area, Iyy and Izz or for which
the 'Stress Calc. Basis' is specified as 'Section'.
The 'Stress Calc. Basis' is reported only for sections that have modified Area, Iyy or Izz.

+ve stresses:  tensile

SEy and SEz are the maximum elastic shear stresses.  (Refer to the GSA manual for details.)

Torsional stress:  St = Mxx/Ct
- where Ct is the 'torsion modulus'.  (Refer to the GSA manual for details.)

Von Mises stress:  This is calculated assuming the maximum through thickness stress and torsional stress coexist.
In most cases this is an over-estimate of the von Mises stress.

Case list:  C3 : ULS3

START_TABLE Beam Derived Stresses
Elem	Case	Stress Calc. Basis	Pos	SEy	SEz	St	Von Mises
				[Pa]	[Pa]	[Pa]	[Pa]
2	C3		442	5.134E+6	19.30E+6	6.373E+6	125.3E+6
			463	5.134E+6	19.30E+6	6.373E+6	125.1E+6
3	C3		442	-5.037E+6	19.88E+6	-6.351E+6	128.2E+6
			443	-5.037E+6	19.88E+6	-6.351E+6	127.4E+6
5	C3		443	4.070E+6	9.928E+6	5.026E+6	73.71E+6
			464	4.070E+6	9.928E+6	5.026E+6	67.33E+6
6	C3		443	2.100E+6	11.79E+6	-1.066E+6	54.37E+6
			444	2.100E+6	11.79E+6	-1.066E+6	119.4E+6
8	C3		444	7.123E+6	-6.556E+6	6.418E+6	66.98E+6
			465	7.123E+6	-6.556E+6	6.418E+6	80.49E+6
9	C3		444	-4.634E+6	-31.59E+6	-4.611E+6	238.3E+6
			445	-4.634E+6	-31.59E+6	-4.611E+6	153.3E+6
11	C3		445	6.483E+6	1.699E+6	2.672E+6	40.58E+6
			466	6.483E+6	1.699E+6	2.672E+6	37.49E+6
12	C3		445	-2.155E+6	-26.91E+6	-1.211E+6	137.5E+6
			446	-2.155E+6	-26.91E+6	-1.211E+6	142.6E+6
14	C3		446	3.218E+6	-622200.	1.445E+6	21.62E+6
			467	3.218E+6	-622200.	1.445E+6	16.43E+6
15	C3		446	-551900.	-23.46E+6	512300.	107.7E+6
			447	-551900.	-23.46E+6	512300.	131.6E+6
17	C3		447	1.493E+6	-2.557E+6	-180800.	23.06E+6
			468	1.493E+6	-2.557E+6	-180800.	15.01E+6
18	C3		447	-312200.	-17.52E+6	1.046E+6	92.84E+6
			448	-312200.	-17.52E+6	1.046E+6	126.5E+6
20	C3		448	984700.	-2.885E+6	-670500.	22.25E+6
			469	984700.	-2.885E+6	-670500.	15.45E+6
21	C3		448	-404800.	-11.31E+6	804300.	75.88E+6
			449	-404800.	-11.31E+6	804300.	113.8E+6
23	C3		449	942800.	-2.511E+6	-649700.	19.75E+6
			470	942800.	-2.511E+6	-649700.	13.87E+6
24	C3		449	-561300.	-5.460E+6	391700.	57.75E+6
			450	-561300.	-5.460E+6	391700.	97.01E+6
26	C3		450	996200.	-1.825E+6	-585900.	15.94E+6
			471	996200.	-1.825E+6	-585900.	11.12E+6
27	C3		450	-660400.	-314400.	154400.	75.97E+6
			451	-660400.	-314400.	154400.	78.01E+6
29	C3		451	972600.	-772100.	-741700.	9.906E+6
			472	972600.	-772100.	-741700.	6.591E+6
30	C3		451	-645700.	3.840E+6	239300.	91.82E+6
			452	-645700.	3.840E+6	239300.	59.87E+6
32	C3		452	800400.	930700.	-970000.	7.701E+6
			473	800400.	930700.	-970000.	8.556E+6
33	C3		452	-529400.	9.483E+6	455100.	108.8E+6
			453	-529400.	9.483E+6	455100.	73.39E+6
35	C3		453	344900.	2.159E+6	-1.635E+6	14.19E+6
			474	344900.	2.159E+6	-1.635E+6	12.23E+6
36	C3		453	-101400.	14.01E+6	1.598E+6	112.7E+6
			454	-101400.	14.01E+6	1.598E+6	86.95E+6
38	C3		454	-499600.	4.410E+6	-2.976E+6	30.16E+6
			475	-499600.	4.410E+6	-2.976E+6	21.41E+6
39	C3		454	610900.	16.26E+6	3.212E+6	106.2E+6
			455	610900.	16.26E+6	3.212E+6	92.63E+6
41	C3		455	-1.652E+6	7.357E+6	-4.298E+6	54.68E+6
			476	-1.652E+6	7.357E+6	-4.298E+6	36.53E+6
42	C3		455	1.588E+6	15.57E+6	4.626E+6	85.44E+6
			456	1.588E+6	15.57E+6	4.626E+6	87.66E+6
44	C3		456	-2.614E+6	10.02E+6	-4.654E+6	77.70E+6
			477	-2.614E+6	10.02E+6	-4.654E+6	48.01E+6
45	C3		456	2.463E+6	12.21E+6	4.470E+6	64.22E+6
			457	2.463E+6	12.21E+6	4.470E+6	76.98E+6
47	C3		457	-1.350E+6	11.27E+6	-2.856E+6	81.47E+6
			478	-1.350E+6	11.27E+6	-2.856E+6	43.48E+6
48	C3		457	386900.	7.616E+6	1.190E+6	40.22E+6
			458	386900.	7.616E+6	1.190E+6	64.44E+6
50	C3		458	3.505E+6	11.25E+6	1.269E+6	92.75E+6
			479	3.505E+6	11.25E+6	1.269E+6	46.03E+6
51	C3		458	-4.745E+6	3.091E+6	-3.722E+6	45.28E+6
			459	-4.745E+6	3.091E+6	-3.722E+6	57.49E+6
53	C3		459	7.715E+6	10.79E+6	5.060E+6	108.7E+6
			480	7.715E+6	10.79E+6	5.060E+6	64.28E+6
54	C3		459	-5.941E+6	-1.029E+6	-6.412E+6	52.32E+6
			460	-5.941E+6	-1.029E+6	-6.412E+6	46.63E+6
56	C3		460	7.447E+6	9.065E+6	6.197E+6	94.84E+6
			481	7.447E+6	9.065E+6	6.197E+6	61.80E+6
57	C3		460	-4.057E+6	-3.427E+6	-5.934E+6	39.87E+6
			461	-4.057E+6	-3.427E+6	-5.934E+6	43.82E+6
59	C3		461	4.571E+6	6.437E+6	5.256E+6	63.36E+6
			482	4.571E+6	6.437E+6	5.256E+6	43.55E+6
60	C3		461	-1.609E+6	-3.197E+6	-3.704E+6	19.45E+6
			462	-1.609E+6	-3.197E+6	-3.704E+6	30.20E+6
62	C3		462	1.648E+6	3.470E+6	3.654E+6	31.49E+6
			483	1.648E+6	3.470E+6	3.654E+6	21.07E+6
64	C3		463	-2.425E+6	10.40E+6	741300.	49.99E+6
			484	-2.425E+6	10.40E+6	741300.	112.0E+6
65	C3		463	-3.899E+6	10.70E+6	-4.896E+6	76.96E+6
			464	-3.899E+6	10.70E+6	-4.896E+6	70.66E+6
67	C3		464	-3.622E+6	11.75E+6	-2.593E+6	56.03E+6
			485	-3.622E+6	11.75E+6	-2.593E+6	118.4E+6
68	C3		464	3.390E+6	12.18E+6	2.428E+6	56.76E+6
			465	3.390E+6	12.18E+6	2.428E+6	121.8E+6
70	C3		465	-3.785E+6	41.85E+6	-2.353E+6	179.8E+6
			486	-3.785E+6	41.85E+6	-2.353E+6	245.4E+6
71	C3		465	-7.058E+6	-28.79E+6	-8.611E+6	212.5E+6
			466	-7.058E+6	-28.79E+6	-8.611E+6	144.9E+6
73	C3		466	1.311E+6	6.418E+6	8.845E+6	32.34E+6
			487	1.311E+6	6.418E+6	8.845E+6	61.81E+6
74	C3		466	-2.056E+6	-29.61E+6	-3.191E+6	140.0E+6
			467	-2.056E+6	-29.61E+6	-3.191E+6	148.4E+6
76	C3		467	-293000.	-4.633E+6	265700.	31.74E+6
			488	-293000.	-4.633E+6	265700.	16.46E+6
77	C3		467	-594700.	-22.46E+6	453100.	108.9E+6
			468	-594700.	-22.46E+6	453100.	140.2E+6
79	C3		468	-356700.	-5.738E+6	-1.353E+6	35.86E+6
			489	-356700.	-5.738E+6	-1.353E+6	28.81E+6
80	C3		468	-422900.	-15.91E+6	1.275E+6	91.63E+6
			469	-422900.	-15.91E+6	1.275E+6	128.1E+6
82	C3		469	81260.	-5.266E+6	-1.443E+6	33.08E+6
			490	81260.	-5.266E+6	-1.443E+6	27.10E+6
83	C3		469	-712500.	-10.20E+6	1.070E+6	77.17E+6
			470	-712500.	-10.20E+6	1.070E+6	115.6E+6
85	C3		470	614500.	-4.389E+6	-1.228E+6	29.73E+6
			491	614500.	-4.389E+6	-1.228E+6	24.56E+6
86	C3		470	-1.051E+6	-4.988E+6	681700.	61.66E+6
			471	-1.051E+6	-4.988E+6	681700.	101.0E+6
88	C3		471	1.023E+6	-3.282E+6	-1.057E+6	24.76E+6
			492	1.023E+6	-3.282E+6	-1.057E+6	20.27E+6
89	C3		471	-1.267E+6	-199100.	461900.	82.59E+6
			472	-1.267E+6	-199100.	461900.	83.77E+6
91	C3		472	1.219E+6	-2.024E+6	-1.057E+6	18.07E+6
			493	1.219E+6	-2.024E+6	-1.057E+6	13.97E+6
92	C3		472	-1.287E+6	4.373E+6	584900.	100.1E+6
			473	-1.287E+6	4.373E+6	584900.	63.66E+6
94	C3		473	1.159E+6	-689500.	-1.576E+6	11.81E+6
			494	1.159E+6	-689500.	-1.576E+6	6.728E+6
95	C3		473	-1.082E+6	9.480E+6	1.217E+6	115.2E+6
			474	-1.082E+6	9.480E+6	1.217E+6	75.99E+6
97	C3		474	789000.	2.426E+6	-2.720E+6	17.38E+6
			495	789000.	2.426E+6	-2.720E+6	19.92E+6
98	C3		474	-465900.	15.83E+6	2.691E+6	127.3E+6
			475	-465900.	15.83E+6	2.691E+6	94.46E+6
100	C3		475	88530.	6.606E+6	-4.572E+6	39.23E+6
			496	88530.	6.606E+6	-4.572E+6	40.92E+6
101	C3		475	550900.	20.31E+6	4.902E+6	126.5E+6
			476	550900.	20.31E+6	4.902E+6	108.5E+6
103	C3		476	-833500.	12.65E+6	-7.055E+6	79.84E+6
			497	-833500.	12.65E+6	-7.055E+6	72.54E+6
104	C3		476	1.856E+6	21.69E+6	6.943E+6	111.5E+6
			477	1.856E+6	21.69E+6	6.943E+6	114.1E+6
106	C3		477	-1.482E+6	19.98E+6	-8.544E+6	129.2E+6
			498	-1.482E+6	19.98E+6	-8.544E+6	105.7E+6
107	C3		477	2.716E+6	18.41E+6	6.795E+6	97.38E+6
			478	2.716E+6	18.41E+6	6.795E+6	116.0E+6
109	C3		478	55270.	26.29E+6	-6.307E+6	162.2E+6
			499	55270.	26.29E+6	-6.307E+6	120.2E+6
110	C3		478	-626000.	10.05E+6	2.259E+6	52.09E+6
			479	-626000.	10.05E+6	2.259E+6	88.28E+6
112	C3		479	5.028E+6	28.48E+6	2.280E+6	200.6E+6
			500	5.028E+6	28.48E+6	2.280E+6	133.1E+6
113	C3		479	-7.901E+6	-1.165E+6	-5.492E+6	88.10E+6
			480	-7.901E+6	-1.165E+6	-5.492E+6	74.52E+6
115	C3		480	9.354E+6	24.47E+6	9.675E+6	191.8E+6
			501	9.354E+6	24.47E+6	9.675E+6	146.6E+6
116	C3		480	-9.912E+6	-8.212E+6	-8.983E+6	108.4E+6
			481	-9.912E+6	-8.212E+6	-8.983E+6	93.82E+6
118	C3		481	9.477E+6	17.08E+6	10.44E+6	147.2E+6
			502	9.477E+6	17.08E+6	10.44E+6	123.8E+6
119	C3		481	-7.387E+6	-9.553E+6	-8.174E+6	83.40E+6
			482	-7.387E+6	-9.553E+6	-8.174E+6	91.51E+6
121	C3		482	7.188E+6	9.971E+6	8.373E+6	93.18E+6
			503	7.188E+6	9.971E+6	8.373E+6	84.89E+6
122	C3		482	-4.322E+6	-6.420E+6	-5.400E+6	42.55E+6
			483	-4.322E+6	-6.420E+6	-5.400E+6	62.05E+6
124	C3		483	3.835E+6	3.716E+6	6.074E+6	43.05E+6
			504	3.835E+6	3.716E+6	6.074E+6	41.59E+6
126	C3		484	5.037E+6	-29.22E+6	5.076E+6	224.3E+6
			505	5.037E+6	-29.22E+6	5.076E+6	145.0E+6
127	C3		484	-7.011E+6	-5.208E+6	-6.351E+6	59.84E+6
			485	-7.011E+6	-5.208E+6	-6.351E+6	72.54E+6
129	C3		485	7.443E+6	-27.87E+6	9.002E+6	207.2E+6
			506	7.443E+6	-27.87E+6	9.002E+6	143.0E+6
130	C3		485	3.459E+6	41.70E+6	2.080E+6	175.4E+6
			486	3.459E+6	41.70E+6	2.080E+6	242.7E+6
132	C3		486	10.60E+6	-72.01E+6	4.699E+6	470.7E+6
			507	10.60E+6	-72.01E+6	4.699E+6	348.7E+6
133	C3		486	-10.42E+6	-72.86E+6	-4.444E+6	476.7E+6
			487	-10.42E+6	-72.86E+6	-4.444E+6	351.3E+6
135	C3		487	9.828E+6	-25.69E+6	-11.48E+6	189.0E+6
			508	9.828E+6	-25.69E+6	-11.48E+6	136.1E+6
136	C3		487	-2.760E+6	-30.59E+6	1.718E+6	132.4E+6
			488	-2.760E+6	-30.59E+6	1.718E+6	182.5E+6
138	C3		488	5.633E+6	-11.85E+6	-4.420E+6	92.44E+6
			509	5.633E+6	-11.85E+6	-4.420E+6	77.62E+6
139	C3		488	-1.815E+6	-21.22E+6	2.411E+6	100.1E+6
			489	-1.815E+6	-21.22E+6	2.411E+6	139.3E+6
141	C3		489	4.102E+6	-8.708E+6	-2.689E+6	69.78E+6
			510	4.102E+6	-8.708E+6	-2.689E+6	64.45E+6
142	C3		489	-1.658E+6	-14.80E+6	2.007E+6	88.89E+6
			490	-1.658E+6	-14.80E+6	2.007E+6	125.9E+6
144	C3		490	3.565E+6	-7.128E+6	-1.944E+6	58.64E+6
			511	3.565E+6	-7.128E+6	-1.944E+6	56.44E+6
145	C3		490	-1.937E+6	-9.613E+6	1.381E+6	78.80E+6
			491	-1.937E+6	-9.613E+6	1.381E+6	116.2E+6
147	C3		491	3.435E+6	-5.765E+6	-1.440E+6	50.05E+6
			512	3.435E+6	-5.765E+6	-1.440E+6	48.45E+6
148	C3		491	-2.251E+6	-4.901E+6	828200.	66.55E+6
			492	-2.251E+6	-4.901E+6	828200.	105.0E+6
150	C3		492	3.398E+6	-4.419E+6	-1.117E+6	41.87E+6
			513	3.398E+6	-4.419E+6	-1.117E+6	39.67E+6
151	C3		492	-2.449E+6	-442200.	512500.	87.59E+6
			493	-2.449E+6	-442200.	512500.	90.68E+6
153	C3		493	3.302E+6	-2.871E+6	-1.100E+6	32.44E+6
			514	3.302E+6	-2.871E+6	-1.100E+6	28.85E+6
154	C3		493	-2.461E+6	3.783E+6	588100.	105.9E+6
			494	-2.461E+6	3.783E+6	588100.	74.20E+6
156	C3		494	3.066E+6	-648800.	-1.351E+6	20.65E+6
			515	3.066E+6	-648800.	-1.351E+6	14.09E+6
157	C3		494	-2.241E+6	10.24E+6	1.290E+6	128.8E+6
			495	-2.241E+6	10.24E+6	1.290E+6	83.80E+6
159	C3		495	2.584E+6	1.425E+6	-2.271E+6	19.52E+6
			516	2.584E+6	1.425E+6	-2.271E+6	27.26E+6
160	C3		495	-1.647E+6	17.91E+6	3.009E+6	148.0E+6
			496	-1.647E+6	17.91E+6	3.009E+6	105.9E+6
162	C3		496	1.774E+6	5.569E+6	-4.545E+6	39.45E+6
			517	1.774E+6	5.569E+6	-4.545E+6	53.97E+6
163	C3		496	-669700.	25.62E+6	6.167E+6	157.3E+6
			497	-669700.	25.62E+6	6.167E+6	125.4E+6
165	C3		497	687500.	13.71E+6	-8.780E+6	81.18E+6
			518	687500.	13.71E+6	-8.780E+6	102.8E+6
166	C3		497	597700.	31.23E+6	10.33E+6	155.8E+6
			498	597700.	31.23E+6	10.33E+6	145.7E+6
168	C3		498	-328900.	28.10E+6	-13.92E+6	167.6E+6
			519	-328900.	28.10E+6	-13.92E+6	176.2E+6
169	C3		498	1.637E+6	29.65E+6	11.80E+6	156.7E+6
			499	1.637E+6	29.65E+6	11.80E+6	182.2E+6
171	C3		499	830300.	43.85E+6	-10.60E+6	261.2E+6
			520	830300.	43.85E+6	-10.60E+6	239.2E+6
172	C3		499	-1.816E+6	18.31E+6	6.377E+6	95.27E+6
			500	-1.816E+6	18.31E+6	6.377E+6	174.5E+6
174	C3		500	6.362E+6	69.11E+6	5.380E+6	368.9E+6
			521	6.362E+6	69.11E+6	5.380E+6	401.4E+6
175	C3		500	-9.760E+6	-11.62E+6	-11.35E+6	178.7E+6
			501	-9.760E+6	-11.62E+6	-11.35E+6	105.4E+6
177	C3		501	11.70E+6	38.39E+6	15.00E+6	274.3E+6
			522	11.70E+6	38.39E+6	15.00E+6	259.2E+6
178	C3		501	-11.84E+6	-19.13E+6	-13.81E+6	178.8E+6
			502	-11.84E+6	-19.13E+6	-13.81E+6	163.8E+6
180	C3		502	11.46E+6	21.89E+6	15.10E+6	179.7E+6
			523	11.46E+6	21.89E+6	15.10E+6	187.2E+6
181	C3		502	-9.157E+6	-17.33E+6	-11.15E+6	125.8E+6
			503	-9.157E+6	-17.33E+6	-11.15E+6	145.5E+6
183	C3		503	8.951E+6	9.078E+6	10.28E+6	93.93E+6
			524	8.951E+6	9.078E+6	10.28E+6	110.1E+6
184	C3		503	-6.576E+6	-9.768E+6	-6.841E+6	61.72E+6
			504	-6.576E+6	-9.768E+6	-6.841E+6	94.58E+6
186	C3		504	5.170E+6	616500.	6.993E+6	46.55E+6
			525	5.170E+6	616500.	6.993E+6	49.95E+6
188	C3		505	2.284E+6	-25.18E+6	1.588E+6	128.9E+6
			526	2.284E+6	-25.18E+6	1.588E+6	134.9E+6
189	C3		505	-6.767E+6	2.114E+6	-3.193E+6	44.11E+6
			506	-6.767E+6	2.114E+6	-3.193E+6	40.71E+6
191	C3		506	2.338E+6	-28.20E+6	3.557E+6	134.5E+6
			527	2.338E+6	-28.20E+6	3.557E+6	144.2E+6
192	C3		506	-1.701E+6	6.313E+6	-9.134E+6	33.07E+6
			507	-1.701E+6	6.313E+6	-9.134E+6	64.15E+6
194	C3		507	2.960E+6	-29.34E+6	-1.501E+6	126.4E+6
			528	2.960E+6	-29.34E+6	-1.501E+6	178.3E+6
195	C3		507	-9.820E+6	-26.30E+6	11.40E+6	192.5E+6
			508	-9.820E+6	-26.30E+6	11.40E+6	137.9E+6
197	C3		508	4.330E+6	-23.47E+6	-8.146E+6	127.8E+6
			529	4.330E+6	-23.47E+6	-8.146E+6	149.8E+6
198	C3		508	-4.286E+6	-24.59E+6	8.227E+6	134.0E+6
			509	-4.286E+6	-24.59E+6	8.227E+6	154.7E+6
200	C3		509	2.700E+6	-15.01E+6	-5.993E+6	93.04E+6
			530	2.700E+6	-15.01E+6	-5.993E+6	103.1E+6
201	C3		509	-3.004E+6	-18.24E+6	4.573E+6	109.6E+6
			510	-3.004E+6	-18.24E+6	4.573E+6	141.5E+6
203	C3		510	2.441E+6	-10.46E+6	-3.711E+6	72.51E+6
			531	2.441E+6	-10.46E+6	-3.711E+6	80.32E+6
204	C3		510	-2.889E+6	-13.13E+6	2.694E+6	97.57E+6
			511	-2.889E+6	-13.13E+6	2.694E+6	131.2E+6
206	C3		511	2.837E+6	-8.067E+6	-2.324E+6	61.94E+6
			532	2.837E+6	-8.067E+6	-2.324E+6	68.74E+6
207	C3		511	-3.185E+6	-8.858E+6	1.542E+6	88.32E+6
			512	-3.185E+6	-8.858E+6	1.542E+6	123.3E+6
209	C3		512	3.397E+6	-6.428E+6	-1.422E+6	54.76E+6
			533	3.397E+6	-6.428E+6	-1.422E+6	59.95E+6
210	C3		512	-3.536E+6	-4.861E+6	737000.	77.46E+6
			513	-3.536E+6	-4.861E+6	737000.	114.3E+6
212	C3		513	3.920E+6	-5.104E+6	-771800.	48.74E+6
			534	3.920E+6	-5.104E+6	-771800.	51.55E+6
213	C3		513	-3.811E+6	-844100.	224600.	95.85E+6
			514	-3.811E+6	-844100.	224600.	102.3E+6
215	C3		514	4.344E+6	-4.035E+6	-298800.	43.38E+6
			535	4.344E+6	-4.035E+6	-298800.	42.85E+6
216	C3		514	-3.951E+6	3.643E+6	70990.	116.2E+6
			515	-3.951E+6	3.643E+6	70990.	85.75E+6
218	C3		515	4.643E+6	-3.327E+6	-243400.	38.73E+6
			536	4.643E+6	-3.327E+6	-243400.	33.59E+6
219	C3		515	-3.916E+6	9.828E+6	447900.	140.1E+6
			516	-3.916E+6	9.828E+6	447900.	90.85E+6
221	C3		516	4.800E+6	-1.486E+6	-607900.	39.73E+6
			537	4.800E+6	-1.486E+6	-607900.	27.98E+6
222	C3		516	-3.604E+6	19.36E+6	1.759E+6	171.0E+6
			517	-3.604E+6	19.36E+6	1.759E+6	118.4E+6
224	C3		517	4.827E+6	720900.	-1.691E+6	48.47E+6
			538	4.827E+6	720900.	-1.691E+6	54.86E+6
225	C3		517	-3.003E+6	30.91E+6	4.992E+6	200.7E+6
			518	-3.003E+6	30.91E+6	4.992E+6	149.4E+6
227	C3		518	4.806E+6	5.863E+6	-5.229E+6	59.28E+6
			539	4.806E+6	5.863E+6	-5.229E+6	108.2E+6
228	C3		518	-2.202E+6	45.28E+6	12.12E+6	233.2E+6
			519	-2.202E+6	45.28E+6	12.12E+6	214.2E+6
230	C3		519	5.079E+6	25.91E+6	-17.27E+6	144.6E+6
			540	5.079E+6	25.91E+6	-17.27E+6	255.7E+6
231	C3		519	-1.268E+6	53.99E+6	19.25E+6	271.2E+6
			520	-1.268E+6	53.99E+6	19.25E+6	327.1E+6
233	C3		520	6.956E+6	74.60E+6	4.268E+6	372.2E+6
			541	6.956E+6	74.60E+6	4.268E+6	521.2E+6
234	C3		520	-4.367E+6	35.75E+6	-7.086E+6	178.3E+6
			521	-4.367E+6	35.75E+6	-7.086E+6	325.7E+6
236	C3		521	7.884E+6	22.16E+6	3.730E+6	129.0E+6
			542	7.884E+6	22.16E+6	3.730E+6	218.5E+6
237	C3		521	-10.57E+6	-32.49E+6	-1.564E+6	323.1E+6
			522	-10.57E+6	-32.49E+6	-1.564E+6	195.3E+6
239	C3		522	9.465E+6	53.13E+6	3.042E+6	290.4E+6
			543	9.465E+6	53.13E+6	3.042E+6	411.1E+6
240	C3		522	-11.46E+6	-38.87E+6	-18.75E+6	278.2E+6
			523	-11.46E+6	-38.87E+6	-18.75E+6	266.6E+6
242	C3		523	8.475E+6	17.28E+6	16.89E+6	130.2E+6
			544	8.475E+6	17.28E+6	16.89E+6	206.4E+6
243	C3		523	-8.617E+6	-27.72E+6	-12.39E+6	162.6E+6
			524	-8.617E+6	-27.72E+6	-12.39E+6	205.7E+6
245	C3		524	6.481E+6	648400.	7.476E+6	78.53E+6
			545	6.481E+6	648400.	7.476E+6	83.98E+6
246	C3		524	-6.380E+6	-12.73E+6	-6.256E+6	67.01E+6
			525	-6.380E+6	-12.73E+6	-6.256E+6	114.5E+6
248	C3		525	3.389E+6	-5.434E+6	4.709E+6	66.20E+6
			546	3.389E+6	-5.434E+6	4.709E+6	42.16E+6
250	C3		526	658400.	-21.69E+6	-237500.	99.78E+6
			547	658400.	-21.69E+6	-237500.	123.7E+6
251	C3		526	-3.419E+6	-625700.	-1.740E+6	23.04E+6
			527	-3.419E+6	-625700.	-1.740E+6	17.67E+6
253	C3		527	793800.	-20.82E+6	-185500.	101.1E+6
			548	793800.	-20.82E+6	-185500.	132.8E+6
254	C3		527	-21920.	-4.857E+6	-531700.	34.65E+6
			528	-21920.	-4.857E+6	-531700.	16.21E+6
256	C3		528	1.949E+6	-19.60E+6	-2.210E+6	91.94E+6
			549	1.949E+6	-19.60E+6	-2.210E+6	131.8E+6
257	C3		528	-5.655E+6	-12.43E+6	4.312E+6	96.00E+6
			529	-5.655E+6	-12.43E+6	4.312E+6	80.16E+6
259	C3		529	3.008E+6	-16.70E+6	-4.445E+6	100.5E+6
			550	3.008E+6	-16.70E+6	-4.445E+6	133.0E+6
260	C3		529	-2.660E+6	-16.01E+6	6.009E+6	98.92E+6
			530	-2.660E+6	-16.01E+6	6.009E+6	108.0E+6
262	C3		530	1.937E+6	-13.14E+6	-4.399E+6	86.35E+6
			551	1.937E+6	-13.14E+6	-4.399E+6	108.4E+6
263	C3		530	-1.946E+6	-14.55E+6	4.482E+6	95.04E+6
			531	-1.946E+6	-14.55E+6	4.482E+6	116.5E+6
265	C3		531	1.809E+6	-10.13E+6	-3.201E+6	73.21E+6
			552	1.809E+6	-10.13E+6	-3.201E+6	88.98E+6
266	C3		531	-2.329E+6	-11.55E+6	2.722E+6	90.57E+6
			532	-2.329E+6	-11.55E+6	2.722E+6	118.0E+6
268	C3		532	2.319E+6	-7.971E+6	-1.955E+6	63.77E+6
			553	2.319E+6	-7.971E+6	-1.955E+6	75.96E+6
269	C3		532	-2.989E+6	-8.308E+6	1.377E+6	85.42E+6
			533	-2.989E+6	-8.308E+6	1.377E+6	116.4E+6
271	C3		533	2.959E+6	-6.437E+6	-908700.	56.76E+6
			554	2.959E+6	-6.437E+6	-908700.	65.87E+6
272	C3		533	-3.607E+6	-4.964E+6	374800.	77.62E+6
			534	-3.607E+6	-4.964E+6	374800.	111.5E+6
274	C3		534	3.510E+6	-5.367E+6	-43870.	51.42E+6
			555	3.510E+6	-5.367E+6	-43870.	57.07E+6
275	C3		534	-4.101E+6	-1.379E+6	-371100.	91.42E+6
			535	-4.101E+6	-1.379E+6	-371100.	102.5E+6
277	C3		535	3.896E+6	-4.608E+6	633800.	46.90E+6
			556	3.896E+6	-4.608E+6	633800.	48.21E+6
278	C3		535	-4.436E+6	2.572E+6	-878100.	111.2E+6
			536	-4.436E+6	2.572E+6	-878100.	89.94E+6
280	C3		536	4.073E+6	-3.925E+6	1.341E+6	41.80E+6
			557	4.073E+6	-3.925E+6	1.341E+6	37.08E+6
281	C3		536	-4.584E+6	9.664E+6	-1.117E+6	140.3E+6
			537	-4.584E+6	9.664E+6	-1.117E+6	89.85E+6
283	C3		537	3.959E+6	-4.691E+6	2.004E+6	46.36E+6
			558	3.959E+6	-4.691E+6	2.004E+6	35.37E+6
284	C3		537	-4.468E+6	19.53E+6	-1.004E+6	173.5E+6
			538	-4.468E+6	19.53E+6	-1.004E+6	116.6E+6
286	C3		538	3.461E+6	-5.984E+6	2.750E+6	68.70E+6
			559	3.461E+6	-5.984E+6	2.750E+6	43.36E+6
287	C3		538	-4.069E+6	33.06E+6	-340000.	213.8E+6
			539	-4.069E+6	33.06E+6	-340000.	148.0E+6
289	C3		539	2.467E+6	-9.751E+6	4.792E+6	113.6E+6
			560	2.467E+6	-9.751E+6	4.792E+6	60.95E+6
290	C3		539	-3.381E+6	53.75E+6	1.590E+6	320.0E+6
			540	-3.381E+6	53.75E+6	1.590E+6	236.1E+6
292	C3		540	552700.	-25.64E+6	12.71E+6	238.9E+6
			561	552700.	-25.64E+6	12.71E+6	128.4E+6
293	C3		540	-2.636E+6	122.0E+6	8.428E+6	563.8E+6
			541	-2.636E+6	122.0E+6	8.428E+6	721.6E+6
295	C3		541	-5.223E+6	-64.47E+6	-18.22E+6	524.2E+6
			562	-5.223E+6	-64.47E+6	-18.22E+6	296.4E+6
296	C3		541	516400.	-7.034E+6	6.415E+6	156.9E+6
			542	516400.	-7.034E+6	6.415E+6	103.6E+6
298	C3		542	3.602E+6	24.54E+6	-1.815E+6	80.71E+6
			563	3.602E+6	24.54E+6	-1.815E+6	269.4E+6
299	C3		542	-11.91E+6	-5.108E+6	-7.932E+6	180.2E+6
			543	-11.91E+6	-5.108E+6	-7.932E+6	131.4E+6
301	C3		543	12.34E+6	-47.97E+6	17.03E+6	456.1E+6
			564	12.34E+6	-47.97E+6	17.03E+6	252.2E+6
302	C3		543	-8.356E+6	-88.81E+6	-11.88E+6	540.0E+6
			544	-8.356E+6	-88.81E+6	-11.88E+6	465.1E+6
304	C3		544	7.010E+6	-23.67E+6	-6.286E+6	237.8E+6
			565	7.010E+6	-23.67E+6	-6.286E+6	130.8E+6
305	C3		544	-6.388E+6	-34.27E+6	-4.323E+6	167.5E+6
			545	-6.388E+6	-34.27E+6	-4.323E+6	248.9E+6
307	C3		545	4.597E+6	-14.07E+6	-1.082E+6	128.7E+6
			566	4.597E+6	-14.07E+6	-1.082E+6	78.82E+6
308	C3		545	-4.420E+6	-13.98E+6	-2.264E+6	60.87E+6
			546	-4.420E+6	-13.98E+6	-2.264E+6	117.1E+6
310	C3		546	2.403E+6	-12.65E+6	257300.	86.93E+6
			567	2.403E+6	-12.65E+6	257300.	63.94E+6
312	C3		547	421500.	-15.66E+6	-806200.	83.39E+6
			568	421500.	-15.66E+6	-806200.	116.5E+6
313	C3		547	-1.662E+6	-2.648E+6	-29950.	24.55E+6
			548	-1.662E+6	-2.648E+6	-29950.	15.81E+6
315	C3		548	612700.	-14.11E+6	-1.058E+6	82.14E+6
			569	612700.	-14.11E+6	-1.058E+6	118.2E+6
316	C3		548	103300.	-5.990E+6	1.143E+6	37.41E+6
			549	103300.	-5.990E+6	1.143E+6	28.79E+6
318	C3		549	1.796E+6	-12.93E+6	-1.832E+6	78.52E+6
			570	1.796E+6	-12.93E+6	-1.832E+6	115.3E+6
319	C3		549	-4.130E+6	-9.209E+6	2.583E+6	72.97E+6
			550	-4.130E+6	-9.209E+6	2.583E+6	66.99E+6
321	C3		550	2.911E+6	-11.25E+6	-2.565E+6	86.04E+6
			571	2.911E+6	-11.25E+6	-2.565E+6	119.5E+6
322	C3		550	-2.381E+6	-11.30E+6	3.715E+6	77.48E+6
			551	-2.381E+6	-11.30E+6	3.715E+6	84.55E+6
324	C3		551	2.341E+6	-9.775E+6	-2.621E+6	79.39E+6
			572	2.341E+6	-9.775E+6	-2.621E+6	106.7E+6
325	C3		551	-1.804E+6	-11.33E+6	3.279E+6	80.77E+6
			552	-1.804E+6	-11.33E+6	3.279E+6	96.08E+6
327	C3		552	2.390E+6	-8.290E+6	-1.980E+6	72.53E+6
			573	2.390E+6	-8.290E+6	-1.980E+6	93.76E+6
328	C3		552	-2.352E+6	-9.840E+6	2.087E+6	82.44E+6
			553	-2.352E+6	-9.840E+6	2.087E+6	103.7E+6
330	C3		553	3.063E+6	-6.873E+6	-1.016E+6	66.53E+6
			574	3.063E+6	-6.873E+6	-1.016E+6	82.97E+6
331	C3		553	-3.157E+6	-7.605E+6	855600.	81.41E+6
			554	-3.157E+6	-7.605E+6	855600.	107.3E+6
333	C3		554	3.888E+6	-5.760E+6	15280.	61.76E+6
			575	3.888E+6	-5.760E+6	15280.	73.97E+6
334	C3		554	-3.901E+6	-4.948E+6	-222500.	77.08E+6
			555	-3.901E+6	-4.948E+6	-222500.	106.7E+6
336	C3		555	4.687E+6	-5.123E+6	1.043E+6	59.21E+6
			576	4.687E+6	-5.123E+6	1.043E+6	67.06E+6
337	C3		555	-4.532E+6	-1.860E+6	-1.160E+6	86.70E+6
			556	-4.532E+6	-1.860E+6	-1.160E+6	101.9E+6
339	C3		556	5.428E+6	-5.187E+6	2.129E+6	59.83E+6
			577	5.428E+6	-5.187E+6	2.129E+6	62.69E+6
340	C3		556	-5.030E+6	2.042E+6	-2.017E+6	108.2E+6
			557	-5.030E+6	2.042E+6	-2.017E+6	91.57E+6
342	C3		557	6.096E+6	-6.386E+6	3.170E+6	65.29E+6
			578	6.096E+6	-6.386E+6	3.170E+6	61.99E+6
343	C3		557	-5.369E+6	8.010E+6	-2.901E+6	135.4E+6
			558	-5.369E+6	8.010E+6	-2.901E+6	88.72E+6
345	C3		558	6.686E+6	-7.846E+6	4.513E+6	71.69E+6
			579	6.686E+6	-7.846E+6	4.513E+6	60.14E+6
346	C3		558	-5.494E+6	17.78E+6	-4.094E+6	172.0E+6
			559	-5.494E+6	17.78E+6	-4.094E+6	119.8E+6
348	C3		559	7.193E+6	-11.81E+6	6.820E+6	97.95E+6
			580	7.193E+6	-11.81E+6	6.820E+6	83.77E+6
349	C3		559	-5.378E+6	30.30E+6	-6.438E+6	210.3E+6
			560	-5.378E+6	30.30E+6	-6.438E+6	156.8E+6
351	C3		560	7.560E+6	-20.31E+6	10.90E+6	156.8E+6
			581	7.560E+6	-20.31E+6	10.90E+6	132.0E+6
352	C3		560	-4.981E+6	47.47E+6	-11.80E+6	271.5E+6
			561	-4.981E+6	47.47E+6	-11.80E+6	214.9E+6
354	C3		561	7.333E+6	-36.99E+6	17.07E+6	252.1E+6
			582	7.333E+6	-36.99E+6	17.07E+6	222.0E+6
355	C3		561	-4.051E+6	64.92E+6	-16.78E+6	361.4E+6
			562	-4.051E+6	64.92E+6	-16.78E+6	360.3E+6
357	C3		562	3.937E+6	-66.44E+6	21.03E+6	393.2E+6
			583	3.937E+6	-66.44E+6	21.03E+6	360.6E+6
358	C3		562	6.359E+6	86.87E+6	17.34E+6	401.2E+6
			563	6.359E+6	86.87E+6	17.34E+6	625.5E+6
360	C3		563	4.659E+6	-145.0E+6	-1.575E+6	882.3E+6
			584	4.659E+6	-145.0E+6	-1.575E+6	672.6E+6
361	C3		563	-14.77E+6	-86.11E+6	-13.73E+6	641.9E+6
			564	-14.77E+6	-86.11E+6	-13.73E+6	439.8E+6
363	C3		564	5.386E+6	-64.85E+6	-19.88E+6	403.8E+6
			585	5.386E+6	-64.85E+6	-19.88E+6	333.5E+6
364	C3		564	-4.912E+6	-51.02E+6	11.38E+6	294.6E+6
			565	-4.912E+6	-51.02E+6	11.38E+6	313.9E+6
366	C3		565	1.292E+6	-37.64E+6	-12.61E+6	226.6E+6
			586	1.292E+6	-37.64E+6	-12.61E+6	181.1E+6
367	C3		565	-2.995E+6	-30.99E+6	6.886E+6	151.7E+6
			566	-2.995E+6	-30.99E+6	6.886E+6	200.1E+6
369	C3		566	-377300.	-25.22E+6	-6.800E+6	135.9E+6
			587	-377300.	-25.22E+6	-6.800E+6	112.1E+6
370	C3		566	-1.355E+6	-13.17E+6	2.634E+6	50.53E+6
			567	-1.355E+6	-13.17E+6	2.634E+6	93.65E+6
372	C3		567	-1.131E+6	-19.15E+6	-3.836E+6	107.0E+6
			588	-1.131E+6	-19.15E+6	-3.836E+6	84.87E+6
374	C3		568	521600.	-9.381E+6	-589300.	65.01E+6
			589	521600.	-9.381E+6	-589300.	101.9E+6
375	C3		568	-1.157E+6	-2.951E+6	489500.	23.51E+6
			569	-1.157E+6	-2.951E+6	489500.	16.16E+6
377	C3		569	905900.	-8.290E+6	-883200.	66.06E+6
			590	905900.	-8.290E+6	-883200.	103.4E+6
378	C3		569	-317800.	-5.445E+6	1.263E+6	35.11E+6
			570	-317800.	-5.445E+6	1.263E+6	28.04E+6
380	C3		570	2.083E+6	-7.575E+6	-1.236E+6	66.45E+6
			591	2.083E+6	-7.575E+6	-1.236E+6	102.8E+6
381	C3		570	-3.619E+6	-7.479E+6	1.852E+6	61.00E+6
			571	-3.619E+6	-7.479E+6	1.852E+6	58.40E+6
383	C3		571	3.209E+6	-6.736E+6	-1.442E+6	74.47E+6
			592	3.209E+6	-6.736E+6	-1.442E+6	108.4E+6
384	C3		571	-2.767E+6	-8.665E+6	2.345E+6	65.41E+6
			572	-2.767E+6	-8.665E+6	2.345E+6	71.66E+6
386	C3		572	2.986E+6	-6.244E+6	-1.311E+6	71.74E+6
			593	2.986E+6	-6.244E+6	-1.311E+6	101.8E+6
387	C3		572	-2.311E+6	-8.864E+6	2.066E+6	69.38E+6
			573	-2.311E+6	-8.864E+6	2.066E+6	81.14E+6
389	C3		573	3.164E+6	-5.744E+6	-792200.	68.91E+6
			594	3.164E+6	-5.744E+6	-792200.	94.11E+6
390	C3		573	-2.999E+6	-8.077E+6	1.171E+6	73.95E+6
			574	-2.999E+6	-8.077E+6	1.171E+6	90.33E+6
392	C3		574	3.927E+6	-5.059E+6	15550.	65.86E+6
			595	3.927E+6	-5.059E+6	15550.	86.32E+6
393	C3		574	-3.908E+6	-6.559E+6	94130.	75.65E+6
			575	-3.908E+6	-6.559E+6	94130.	96.39E+6
395	C3		575	4.794E+6	-4.495E+6	977900.	63.26E+6
			596	4.794E+6	-4.495E+6	977900.	79.14E+6
396	C3		575	-4.746E+6	-4.490E+6	-971000.	73.71E+6
			576	-4.746E+6	-4.490E+6	-971000.	98.24E+6
398	C3		576	5.614E+6	-4.373E+6	2.008E+6	62.84E+6
			597	5.614E+6	-4.373E+6	2.008E+6	74.24E+6
399	C3		576	-5.504E+6	-1.918E+6	-2.007E+6	80.07E+6
			577	-5.504E+6	-1.918E+6	-2.007E+6	95.78E+6
401	C3		577	6.375E+6	-4.833E+6	3.062E+6	65.28E+6
			598	6.375E+6	-4.833E+6	3.062E+6	72.18E+6
402	C3		577	-6.186E+6	1.105E+6	-3.083E+6	98.84E+6
			578	-6.186E+6	1.105E+6	-3.083E+6	90.21E+6
404	C3		578	7.076E+6	-5.895E+6	4.408E+6	70.56E+6
			599	7.076E+6	-5.895E+6	4.408E+6	72.69E+6
405	C3		578	-6.781E+6	7.107E+6	-4.361E+6	126.4E+6
			579	-6.781E+6	7.107E+6	-4.361E+6	87.32E+6
407	C3		579	7.680E+6	-9.288E+6	6.094E+6	85.80E+6
			600	7.680E+6	-9.288E+6	6.094E+6	82.83E+6
408	C3		579	-7.263E+6	15.23E+6	-6.177E+6	155.7E+6
			580	-7.263E+6	15.23E+6	-6.177E+6	115.9E+6
410	C3		580	8.135E+6	-14.56E+6	8.277E+6	108.7E+6
			601	8.135E+6	-14.56E+6	8.277E+6	101.1E+6
411	C3		580	-7.619E+6	24.64E+6	-9.128E+6	180.2E+6
			581	-7.619E+6	24.64E+6	-9.128E+6	147.5E+6
413	C3		581	8.326E+6	-23.15E+6	11.34E+6	144.0E+6
			602	8.326E+6	-23.15E+6	11.34E+6	145.3E+6
414	C3		581	-7.798E+6	34.16E+6	-13.61E+6	207.7E+6
			582	-7.798E+6	34.16E+6	-13.61E+6	179.9E+6
416	C3		582	7.705E+6	-36.26E+6	14.56E+6	195.7E+6
			603	7.705E+6	-36.26E+6	14.56E+6	214.5E+6
417	C3		582	-7.049E+6	39.82E+6	-18.01E+6	238.8E+6
			583	-7.049E+6	39.82E+6	-18.01E+6	254.5E+6
419	C3		583	4.632E+6	-53.60E+6	14.71E+6	251.9E+6
			604	4.632E+6	-53.60E+6	14.71E+6	300.2E+6
420	C3		583	559800.	33.24E+6	-17.85E+6	163.3E+6
			584	559800.	33.24E+6	-17.85E+6	286.3E+6
422	C3		584	4.830E+6	-63.61E+6	421000.	294.2E+6
			605	4.830E+6	-63.61E+6	421000.	387.4E+6
423	C3		584	-9.843E+6	-28.34E+6	18.17E+6	301.1E+6
			585	-9.843E+6	-28.34E+6	18.17E+6	166.6E+6
425	C3		585	4.974E+6	-55.39E+6	-12.86E+6	269.1E+6
			606	4.974E+6	-55.39E+6	-12.86E+6	290.4E+6
426	C3		585	-2.408E+6	-31.37E+6	15.37E+6	206.0E+6
			586	-2.408E+6	-31.37E+6	15.37E+6	187.9E+6
428	C3		586	1.245E+6	-40.12E+6	-11.24E+6	188.9E+6
			607	1.245E+6	-40.12E+6	-11.24E+6	201.5E+6
429	C3		586	-379400.	-22.47E+6	9.573E+6	116.7E+6
			587	-379400.	-22.47E+6	9.573E+6	136.3E+6
431	C3		587	-624500.	-29.90E+6	-7.425E+6	156.9E+6
			608	-624500.	-29.90E+6	-7.425E+6	154.4E+6
432	C3		587	991700.	-11.11E+6	4.956E+6	46.33E+6
			588	991700.	-11.11E+6	4.956E+6	77.56E+6
434	C3		588	-1.006E+6	-23.60E+6	-4.651E+6	134.7E+6
			609	-1.006E+6	-23.60E+6	-4.651E+6	133.4E+6
436	C3		589	669600.	-3.512E+6	-197600.	54.87E+6
			610	669600.	-3.512E+6	-197600.	83.20E+6
437	C3		589	-1.121E+6	-2.535E+6	471300.	20.76E+6
			590	-1.121E+6	-2.535E+6	471300.	14.46E+6
439	C3		590	1.233E+6	-3.016E+6	-507500.	62.08E+6
			611	1.233E+6	-3.016E+6	-507500.	86.60E+6
440	C3		590	-844800.	-4.475E+6	1.048E+6	31.16E+6
			591	-844800.	-4.475E+6	1.048E+6	25.71E+6
442	C3		591	2.384E+6	-2.772E+6	-705800.	66.58E+6
			612	2.384E+6	-2.772E+6	-705800.	88.93E+6
443	C3		591	-3.504E+6	-5.944E+6	1.354E+6	51.37E+6
			592	-3.504E+6	-5.944E+6	1.354E+6	49.60E+6
445	C3		592	3.521E+6	-2.579E+6	-682700.	75.45E+6
			613	3.521E+6	-2.579E+6	-682700.	96.15E+6
446	C3		592	-3.286E+6	-6.767E+6	1.475E+6	56.35E+6
			593	-3.286E+6	-6.767E+6	1.475E+6	61.21E+6
448	C3		593	3.530E+6	-2.695E+6	-386400.	71.51E+6
			614	3.530E+6	-2.695E+6	-386400.	93.48E+6
449	C3		593	-2.906E+6	-6.982E+6	1.086E+6	59.86E+6
			594	-2.906E+6	-6.982E+6	1.086E+6	68.64E+6
451	C3		594	3.794E+6	-2.836E+6	172700.	66.65E+6
			615	3.794E+6	-2.836E+6	172700.	89.90E+6
452	C3		594	-3.720E+6	-6.557E+6	239500.	65.87E+6
			595	-3.720E+6	-6.557E+6	239500.	77.89E+6
454	C3		595	4.606E+6	-2.724E+6	938600.	62.58E+6
			616	4.606E+6	-2.724E+6	938600.	84.84E+6
455	C3		595	-4.662E+6	-5.558E+6	-756300.	69.34E+6
			596	-4.662E+6	-5.558E+6	-756300.	85.03E+6
457	C3		596	5.433E+6	-2.675E+6	1.834E+6	60.32E+6
			617	5.433E+6	-2.675E+6	1.834E+6	79.52E+6
458	C3		596	-5.472E+6	-4.044E+6	-1.769E+6	69.21E+6
			597	-5.472E+6	-4.044E+6	-1.769E+6	88.33E+6
460	C3		597	6.158E+6	-3.059E+6	2.810E+6	61.70E+6
			618	6.158E+6	-3.059E+6	2.810E+6	76.59E+6
461	C3		597	-6.191E+6	-2.025E+6	-2.795E+6	71.36E+6
			598	-6.191E+6	-2.025E+6	-2.795E+6	87.72E+6
463	C3		598	6.796E+6	-4.227E+6	3.902E+6	66.93E+6
			619	6.796E+6	-4.227E+6	3.902E+6	77.99E+6
464	C3		598	-6.831E+6	692900.	-3.893E+6	87.95E+6
			599	-6.831E+6	692900.	-3.893E+6	82.67E+6
466	C3		599	7.334E+6	-6.665E+6	4.971E+6	77.74E+6
			620	7.334E+6	-6.665E+6	4.971E+6	85.78E+6
467	C3		599	-7.381E+6	4.970E+6	-5.188E+6	107.9E+6
			600	-7.381E+6	4.970E+6	-5.188E+6	77.44E+6
469	C3		600	7.752E+6	-9.416E+6	6.225E+6	90.22E+6
			621	7.752E+6	-9.416E+6	6.225E+6	96.52E+6
470	C3		600	-7.809E+6	11.72E+6	-6.855E+6	131.4E+6
			601	-7.809E+6	11.72E+6	-6.855E+6	102.2E+6
472	C3		601	8.006E+6	-14.15E+6	7.821E+6	111.1E+6
			622	8.006E+6	-14.15E+6	7.821E+6	118.0E+6
473	C3		601	-8.080E+6	17.99E+6	-9.014E+6	143.2E+6
			602	-8.080E+6	17.99E+6	-9.014E+6	124.4E+6
475	C3		602	7.972E+6	-20.86E+6	9.331E+6	138.9E+6
			623	7.972E+6	-20.86E+6	9.331E+6	151.4E+6
476	C3		602	-8.086E+6	22.37E+6	-11.27E+6	142.2E+6
			603	-8.086E+6	22.37E+6	-11.27E+6	138.3E+6
478	C3		603	7.188E+6	-29.06E+6	9.888E+6	168.6E+6
			624	7.188E+6	-29.06E+6	9.888E+6	195.3E+6
479	C3		603	-6.945E+6	21.84E+6	-11.75E+6	137.7E+6
			604	-6.945E+6	21.84E+6	-11.75E+6	156.4E+6
481	C3		604	4.810E+6	-36.98E+6	7.548E+6	185.2E+6
			625	4.810E+6	-36.98E+6	7.548E+6	236.5E+6
482	C3		604	-1.481E+6	11.75E+6	-5.986E+6	67.28E+6
			605	-1.481E+6	11.75E+6	-5.986E+6	117.2E+6
484	C3		605	4.925E+6	-41.63E+6	898000.	184.8E+6
			626	4.925E+6	-41.63E+6	898000.	254.3E+6
485	C3		605	-8.020E+6	-5.638E+6	5.254E+6	125.9E+6
			606	-8.020E+6	-5.638E+6	5.254E+6	76.38E+6
487	C3		606	4.971E+6	-39.86E+6	-5.398E+6	201.9E+6
			627	4.971E+6	-39.86E+6	-5.398E+6	259.4E+6
488	C3		606	-2.620E+6	-14.66E+6	9.821E+6	116.7E+6
			607	-2.620E+6	-14.66E+6	9.821E+6	92.96E+6
490	C3		607	1.952E+6	-34.51E+6	-6.937E+6	180.7E+6
			628	1.952E+6	-34.51E+6	-6.937E+6	218.9E+6
491	C3		607	-246800.	-13.60E+6	8.072E+6	77.94E+6
			608	-246800.	-13.60E+6	8.072E+6	81.02E+6
493	C3		608	159300.	-29.02E+6	-5.565E+6	160.0E+6
			629	159300.	-29.02E+6	-5.565E+6	185.6E+6
494	C3		608	857300.	-7.805E+6	4.851E+6	35.73E+6
			609	857300.	-7.805E+6	4.851E+6	54.26E+6
496	C3		609	-311200.	-24.74E+6	-3.607E+6	147.0E+6
			630	-311200.	-24.74E+6	-3.607E+6	166.6E+6
498	C3		610	757300.	1.688E+6	67090.	76.70E+6
			631	757300.	1.688E+6	67090.	62.22E+6
499	C3		610	-1.172E+6	-1.867E+6	364200.	17.01E+6
			611	-1.172E+6	-1.867E+6	364200.	11.82E+6
501	C3		611	1.436E+6	1.778E+6	-263300.	82.36E+6
			632	1.436E+6	1.778E+6	-263300.	67.26E+6
502	C3		611	-1.247E+6	-3.328E+6	849800.	25.91E+6
			612	-1.247E+6	-3.328E+6	849800.	21.35E+6
504	C3		612	2.563E+6	1.705E+6	-385800.	86.75E+6
			633	2.563E+6	1.705E+6	-385800.	72.19E+6
505	C3		612	-3.468E+6	-4.472E+6	1.004E+6	42.39E+6
			613	-3.468E+6	-4.472E+6	1.004E+6	40.36E+6
507	C3		613	3.731E+6	1.488E+6	-209400.	93.64E+6
			634	3.731E+6	1.488E+6	-209400.	80.92E+6
508	C3		613	-3.726E+6	-5.206E+6	867100.	48.48E+6
			614	-3.726E+6	-5.206E+6	867100.	51.32E+6
510	C3		614	3.908E+6	995800.	254000.	89.41E+6
			635	3.908E+6	995800.	254000.	81.02E+6
511	C3		614	-3.367E+6	-5.564E+6	310400.	51.93E+6
			615	-3.367E+6	-5.564E+6	310400.	57.51E+6
513	C3		615	4.253E+6	413800.	931600.	84.41E+6
			636	4.253E+6	413800.	931600.	81.01E+6
514	C3		615	-4.335E+6	-5.480E+6	-619300.	59.65E+6
			616	-4.335E+6	-5.480E+6	-619300.	67.38E+6
516	C3		616	5.127E+6	90640.	1.735E+6	78.93E+6
			637	5.127E+6	90640.	1.735E+6	78.40E+6
517	C3		616	-5.272E+6	-4.962E+6	-1.601E+6	64.74E+6
			617	-5.272E+6	-4.962E+6	-1.601E+6	75.57E+6
519	C3		617	5.889E+6	-317200.	2.583E+6	72.11E+6
			638	5.889E+6	-317200.	2.583E+6	74.91E+6
520	C3		617	-5.984E+6	-3.985E+6	-2.539E+6	66.42E+6
			618	-5.984E+6	-3.985E+6	-2.539E+6	80.29E+6
522	C3		618	6.476E+6	-1.149E+6	3.410E+6	64.53E+6
			639	6.476E+6	-1.149E+6	3.410E+6	73.84E+6
523	C3		618	-6.574E+6	-2.574E+6	-3.448E+6	65.00E+6
			619	-6.574E+6	-2.574E+6	-3.448E+6	81.52E+6
525	C3		619	6.939E+6	-2.475E+6	4.161E+6	61.77E+6
			640	6.939E+6	-2.475E+6	4.161E+6	76.44E+6
526	C3		619	-7.065E+6	-949100.	-4.375E+6	73.41E+6
			620	-7.065E+6	-949100.	-4.375E+6	80.96E+6
528	C3		620	7.294E+6	-4.162E+6	5.042E+6	69.45E+6
			641	7.294E+6	-4.162E+6	5.042E+6	82.65E+6
529	C3		620	-7.447E+6	3.041E+6	-5.384E+6	92.06E+6
			621	-7.447E+6	3.041E+6	-5.384E+6	68.65E+6
531	C3		621	7.511E+6	-7.599E+6	5.924E+6	84.74E+6
			642	7.511E+6	-7.599E+6	5.924E+6	98.58E+6
532	C3		621	-7.692E+6	7.901E+6	-6.500E+6	107.6E+6
			622	-7.692E+6	7.901E+6	-6.500E+6	85.47E+6
534	C3		622	7.543E+6	-11.58E+6	6.585E+6	103.0E+6
			643	7.543E+6	-11.58E+6	6.585E+6	120.6E+6
535	C3		622	-7.762E+6	12.00E+6	-7.590E+6	113.0E+6
			623	-7.762E+6	12.00E+6	-7.590E+6	100.0E+6
537	C3		623	7.299E+6	-16.16E+6	6.914E+6	123.4E+6
			644	7.299E+6	-16.16E+6	6.914E+6	148.9E+6
538	C3		623	-7.534E+6	13.96E+6	-8.111E+6	102.4E+6
			624	-7.534E+6	13.96E+6	-8.111E+6	104.2E+6
540	C3		624	6.438E+6	-20.83E+6	6.301E+6	142.0E+6
			645	6.438E+6	-20.83E+6	6.301E+6	180.3E+6
541	C3		624	-6.239E+6	12.40E+6	-6.832E+6	81.35E+6
			625	-6.239E+6	12.40E+6	-6.832E+6	91.29E+6
543	C3		625	4.609E+6	-24.78E+6	4.159E+6	151.4E+6
			646	4.609E+6	-24.78E+6	4.159E+6	205.3E+6
544	C3		625	-2.412E+6	6.902E+6	-2.611E+6	42.41E+6
			626	-2.412E+6	6.902E+6	-2.611E+6	63.96E+6
546	C3		626	4.755E+6	-27.73E+6	758100.	156.6E+6
			647	4.755E+6	-27.73E+6	758100.	218.8E+6
547	C3		626	-6.921E+6	-126300.	2.085E+6	61.74E+6
			627	-6.921E+6	-126300.	2.085E+6	58.02E+6
549	C3		627	4.839E+6	-27.91E+6	-2.409E+6	172.5E+6
			648	4.839E+6	-27.91E+6	-2.409E+6	232.9E+6
550	C3		627	-3.135E+6	-5.377E+6	5.499E+6	58.20E+6
			628	-3.135E+6	-5.377E+6	5.499E+6	43.14E+6
552	C3		628	2.388E+6	-26.67E+6	-3.902E+6	164.0E+6
			649	2.388E+6	-26.67E+6	-3.902E+6	215.9E+6
553	C3		628	-631900.	-6.551E+6	5.613E+6	42.69E+6
			629	-631900.	-6.551E+6	5.613E+6	40.64E+6
555	C3		629	705000.	-24.60E+6	-3.597E+6	154.8E+6
			650	705000.	-24.60E+6	-3.597E+6	198.2E+6
556	C3		629	210700.	-4.303E+6	3.726E+6	20.82E+6
			630	210700.	-4.303E+6	3.726E+6	28.77E+6
558	C3		630	131600.	-22.37E+6	-2.373E+6	146.1E+6
			651	131600.	-22.37E+6	-2.373E+6	184.1E+6
560	C3		631	741300.	6.084E+6	63210.	90.29E+6
			652	741300.	6.084E+6	63210.	58.66E+6
561	C3		631	-1.149E+6	-1.062E+6	374200.	12.12E+6
			632	-1.149E+6	-1.062E+6	374200.	8.395E+6
563	C3		632	1.454E+6	6.097E+6	-317900.	95.94E+6
			653	1.454E+6	6.097E+6	-317900.	62.96E+6
564	C3		632	-1.448E+6	-2.048E+6	826300.	19.22E+6
			633	-1.448E+6	-2.048E+6	826300.	15.32E+6
566	C3		633	2.566E+6	6.002E+6	-394200.	101.6E+6
			654	2.566E+6	6.002E+6	-394200.	67.18E+6
567	C3		633	-3.376E+6	-3.012E+6	863700.	33.34E+6
			634	-3.376E+6	-3.012E+6	863700.	30.39E+6
569	C3		634	3.800E+6	5.675E+6	-53930.	108.6E+6
			655	3.800E+6	5.675E+6	-53930.	73.47E+6
570	C3		634	-4.038E+6	-3.865E+6	479300.	41.25E+6
			635	-4.038E+6	-3.865E+6	479300.	41.45E+6
572	C3		635	4.111E+6	5.034E+6	643600.	104.9E+6
			656	4.111E+6	5.034E+6	643600.	70.79E+6
573	C3		635	-3.641E+6	-4.570E+6	-300100.	45.50E+6
			636	-3.641E+6	-4.570E+6	-300100.	47.34E+6
575	C3		636	4.549E+6	4.138E+6	1.540E+6	100.6E+6
			657	4.549E+6	4.138E+6	1.540E+6	69.13E+6
576	C3		636	-4.833E+6	-4.960E+6	-1.407E+6	55.98E+6
			637	-4.833E+6	-4.960E+6	-1.407E+6	59.15E+6
578	C3		637	5.526E+6	3.448E+6	2.460E+6	94.23E+6
			658	5.526E+6	3.448E+6	2.460E+6	67.25E+6
579	C3		637	-5.759E+6	-4.984E+6	-2.424E+6	63.24E+6
			638	-5.759E+6	-4.984E+6	-2.424E+6	69.39E+6
581	C3		638	6.223E+6	2.593E+6	3.276E+6	85.45E+6
			659	6.223E+6	2.593E+6	3.276E+6	65.26E+6
582	C3		638	-6.343E+6	-4.561E+6	-3.260E+6	66.85E+6
			639	-6.343E+6	-4.561E+6	-3.260E+6	76.20E+6
584	C3		639	6.658E+6	1.307E+6	3.936E+6	76.00E+6
			660	6.658E+6	1.307E+6	3.936E+6	66.09E+6
585	C3		639	-6.766E+6	-3.684E+6	-3.959E+6	67.29E+6
			640	-6.766E+6	-3.684E+6	-3.959E+6	79.73E+6
587	C3		640	6.932E+6	-535400.	4.497E+6	66.80E+6
			661	6.932E+6	-535400.	4.497E+6	71.26E+6
588	C3		640	-7.064E+6	-2.300E+6	-4.572E+6	63.72E+6
			641	-7.064E+6	-2.300E+6	-4.572E+6	79.95E+6
590	C3		641	7.055E+6	-3.149E+6	4.805E+6	65.70E+6
			662	7.055E+6	-3.149E+6	4.805E+6	82.28E+6
591	C3		641	-7.234E+6	194100.	-5.134E+6	75.16E+6
			642	-7.234E+6	194100.	-5.134E+6	73.67E+6
593	C3		642	7.029E+6	-5.228E+6	4.993E+6	75.45E+6
			663	7.029E+6	-5.228E+6	4.993E+6	94.37E+6
594	C3		642	-7.256E+6	4.445E+6	-5.613E+6	89.78E+6
			643	-7.256E+6	4.445E+6	-5.613E+6	70.17E+6
596	C3		643	6.836E+6	-7.954E+6	5.110E+6	88.78E+6
			664	6.836E+6	-7.954E+6	5.110E+6	112.8E+6
597	C3		643	-7.101E+6	7.500E+6	-5.844E+6	93.05E+6
			644	-7.101E+6	7.500E+6	-5.844E+6	80.24E+6
599	C3		644	6.400E+6	-10.84E+6	4.784E+6	103.5E+6
			665	6.400E+6	-10.84E+6	4.784E+6	135.7E+6
600	C3		644	-6.655E+6	8.841E+6	-5.451E+6	84.73E+6
			645	-6.655E+6	8.841E+6	-5.451E+6	81.65E+6
602	C3		645	5.492E+6	-13.42E+6	3.836E+6	116.4E+6
			666	5.492E+6	-13.42E+6	3.836E+6	159.1E+6
603	C3		645	-5.332E+6	8.098E+6	-3.888E+6	63.11E+6
			646	-5.332E+6	8.098E+6	-3.888E+6	69.62E+6
605	C3		646	4.066E+6	-15.62E+6	2.210E+6	124.2E+6
			667	4.066E+6	-15.62E+6	2.210E+6	177.9E+6
606	C3		646	-2.676E+6	5.594E+6	-1.063E+6	33.43E+6
			647	-2.676E+6	5.594E+6	-1.063E+6	41.73E+6
608	C3		647	4.258E+6	-17.72E+6	200900.	132.1E+6
			668	4.258E+6	-17.72E+6	200900.	192.1E+6
609	C3		647	-5.934E+6	2.233E+6	1.495E+6	32.96E+6
			648	-5.934E+6	2.233E+6	1.495E+6	43.40E+6
611	C3		648	4.424E+6	-18.50E+6	-1.584E+6	147.0E+6
			669	4.424E+6	-18.50E+6	-1.584E+6	209.0E+6
612	C3		648	-3.372E+6	-513400.	3.559E+6	25.41E+6
			649	-3.372E+6	-513400.	3.559E+6	24.09E+6
614	C3		649	2.391E+6	-18.70E+6	-2.555E+6	142.5E+6
			670	2.391E+6	-18.70E+6	-2.555E+6	202.5E+6
615	C3		649	-799800.	-1.812E+6	3.915E+6	16.78E+6
			650	-799800.	-1.812E+6	3.915E+6	14.42E+6
617	C3		650	804000.	-18.28E+6	-2.493E+6	138.4E+6
			671	804000.	-18.28E+6	-2.493E+6	194.7E+6
618	C3		650	-173900.	-1.466E+6	2.704E+6	9.639E+6
			651	-173900.	-1.466E+6	2.704E+6	10.43E+6
620	C3		651	249600.	-17.17E+6	-1.708E+6	132.4E+6
			672	249600.	-17.17E+6	-1.708E+6	186.2E+6
622	C3		652	584800.	9.498E+6	-301000.	94.98E+6
			673	584800.	9.498E+6	-301000.	70.33E+6
623	C3		652	-968300.	-81360.	614400.	6.160E+6
			653	-968300.	-81360.	614400.	4.559E+6
625	C3		653	1.243E+6	9.886E+6	-800500.	102.4E+6
			674	1.243E+6	9.886E+6	-800500.	74.76E+6
626	C3		653	-1.418E+6	-536500.	1.104E+6	11.00E+6
			654	-1.418E+6	-536500.	1.104E+6	7.654E+6
628	C3		654	2.351E+6	10.23E+6	-878500.	111.5E+6
			675	2.351E+6	10.23E+6	-878500.	80.20E+6
629	C3		654	-3.155E+6	-1.432E+6	1.031E+6	23.33E+6
			655	-3.155E+6	-1.432E+6	1.031E+6	18.97E+6
631	C3		655	3.696E+6	10.22E+6	-323000.	121.1E+6
			676	3.696E+6	10.22E+6	-323000.	86.88E+6
632	C3		655	-4.213E+6	-2.648E+6	340700.	34.06E+6
			656	-4.213E+6	-2.648E+6	340700.	30.80E+6
634	C3		656	4.119E+6	9.720E+6	770900.	119.1E+6
			677	4.119E+6	9.720E+6	770900.	84.27E+6
635	C3		656	-3.696E+6	-4.000E+6	-770600.	40.25E+6
			657	-3.696E+6	-4.000E+6	-770600.	37.40E+6
637	C3		657	4.667E+6	8.581E+6	2.078E+6	116.2E+6
			678	4.667E+6	8.581E+6	2.078E+6	83.64E+6
638	C3		657	-5.222E+6	-5.109E+6	-2.182E+6	55.33E+6
			658	-5.222E+6	-5.109E+6	-2.182E+6	53.31E+6
640	C3		658	5.798E+6	7.466E+6	3.235E+6	108.6E+6
			679	5.798E+6	7.466E+6	3.235E+6	81.28E+6
641	C3		658	-6.136E+6	-5.795E+6	-3.279E+6	65.42E+6
			659	-6.136E+6	-5.795E+6	-3.279E+6	67.02E+6
643	C3		659	6.425E+6	6.009E+6	4.019E+6	97.08E+6
			680	6.425E+6	6.009E+6	4.019E+6	75.11E+6
644	C3		659	-6.572E+6	-5.876E+6	-3.973E+6	70.89E+6
			660	-6.572E+6	-5.876E+6	-3.973E+6	76.54E+6
646	C3		660	6.691E+6	4.141E+6	4.399E+6	85.40E+6
			681	6.691E+6	4.141E+6	4.399E+6	67.36E+6
647	C3		660	-6.805E+6	-5.388E+6	-4.369E+6	72.92E+6
			661	-6.805E+6	-5.388E+6	-4.369E+6	82.29E+6
649	C3		661	6.752E+6	2.156E+6	4.428E+6	76.05E+6
			682	6.752E+6	2.156E+6	4.428E+6	59.67E+6
650	C3		661	-6.887E+6	-4.702E+6	-4.569E+6	71.94E+6
			662	-6.887E+6	-4.702E+6	-4.569E+6	86.56E+6
652	C3		662	6.655E+6	480300.	4.393E+6	71.08E+6
			683	6.655E+6	480300.	4.393E+6	67.64E+6
653	C3		662	-6.823E+6	-1.838E+6	-4.629E+6	65.23E+6
			663	-6.823E+6	-1.838E+6	-4.629E+6	79.51E+6
655	C3		663	6.400E+6	-2.055E+6	4.201E+6	66.07E+6
			684	6.400E+6	-2.055E+6	4.201E+6	82.44E+6
656	C3		663	-6.607E+6	1.666E+6	-4.531E+6	77.58E+6
			664	-6.607E+6	1.666E+6	-4.531E+6	64.63E+6
658	C3		664	5.975E+6	-4.085E+6	3.684E+6	71.85E+6
			685	5.975E+6	-4.085E+6	3.684E+6	98.79E+6
659	C3		664	-6.222E+6	4.465E+6	-4.166E+6	81.99E+6
			665	-6.222E+6	4.465E+6	-4.166E+6	66.48E+6
661	C3		665	5.346E+6	-5.728E+6	2.954E+6	81.93E+6
			686	5.346E+6	-5.728E+6	2.954E+6	116.8E+6
662	C3		665	-5.577E+6	6.024E+6	-3.347E+6	77.35E+6
			666	-5.577E+6	6.024E+6	-3.347E+6	68.27E+6
664	C3		666	4.385E+6	-7.002E+6	1.920E+6	90.88E+6
			687	4.385E+6	-7.002E+6	1.920E+6	135.0E+6
665	C3		666	-4.274E+6	6.277E+6	-1.869E+6	63.83E+6
			667	-4.274E+6	6.277E+6	-1.869E+6	60.83E+6
667	C3		667	3.232E+6	-8.154E+6	633700.	97.41E+6
			688	3.232E+6	-8.154E+6	633700.	150.7E+6
668	C3		667	-2.421E+6	5.480E+6	160400.	46.12E+6
			668	-2.421E+6	5.480E+6	160400.	44.48E+6
670	C3		668	3.468E+6	-9.552E+6	-708400.	106.1E+6
			689	3.468E+6	-9.552E+6	-708400.	165.9E+6
671	C3		668	-4.884E+6	3.980E+6	1.809E+6	44.83E+6
			669	-4.884E+6	3.980E+6	1.809E+6	45.19E+6
673	C3		669	3.746E+6	-10.37E+6	-1.808E+6	119.4E+6
			690	3.746E+6	-10.37E+6	-1.808E+6	183.3E+6
674	C3		669	-3.265E+6	2.513E+6	3.028E+6	26.98E+6
			670	-3.265E+6	2.513E+6	3.028E+6	31.09E+6
676	C3		670	2.003E+6	-10.86E+6	-2.380E+6	115.3E+6
			691	2.003E+6	-10.86E+6	-2.380E+6	180.6E+6
677	C3		670	-588800.	1.330E+6	3.198E+6	10.41E+6
			671	-588800.	1.330E+6	3.198E+6	13.16E+6
679	C3		671	491000.	-10.87E+6	-2.303E+6	112.4E+6
			692	491000.	-10.87E+6	-2.303E+6	177.7E+6
680	C3		671	-182100.	587100.	2.212E+6	5.366E+6
			672	-182100.	587100.	2.212E+6	6.374E+6
682	C3		672	95230.	-9.919E+6	-1.735E+6	106.2E+6
			693	95230.	-9.919E+6	-1.735E+6	171.3E+6
684	C3		673	256300.	11.65E+6	-1.065E+6	90.24E+6
			694	256300.	11.65E+6	-1.065E+6	74.33E+6
685	C3		673	-575900.	1.185E+6	1.154E+6	9.686E+6
			674	-575900.	1.185E+6	1.154E+6	8.145E+6
687	C3		674	771900.	12.96E+6	-1.801E+6	101.3E+6
			695	771900.	12.96E+6	-1.801E+6	80.89E+6
688	C3		674	-1.145E+6	1.442E+6	1.813E+6	13.08E+6
			675	-1.145E+6	1.442E+6	1.813E+6	14.51E+6
690	C3		675	1.888E+6	14.46E+6	-2.054E+6	116.4E+6
			696	1.888E+6	14.46E+6	-2.054E+6	89.83E+6
691	C3		675	-2.754E+6	547100.	1.678E+6	18.26E+6
			676	-2.754E+6	547100.	1.678E+6	20.78E+6
693	C3		676	3.400E+6	15.50E+6	-1.268E+6	132.5E+6
			697	3.400E+6	15.50E+6	-1.268E+6	99.16E+6
694	C3		676	-4.255E+6	-1.400E+6	540900.	32.24E+6
			677	-4.255E+6	-1.400E+6	540900.	23.35E+6
696	C3		677	3.920E+6	15.54E+6	583700.	133.7E+6
			698	3.920E+6	15.54E+6	583700.	96.95E+6
697	C3		677	-3.498E+6	-3.901E+6	-1.139E+6	36.89E+6
			678	-3.498E+6	-3.901E+6	-1.139E+6	29.13E+6
699	C3		678	4.604E+6	14.18E+6	2.744E+6	132.6E+6
			699	4.604E+6	14.18E+6	2.744E+6	98.68E+6
700	C3		678	-5.510E+6	-6.171E+6	-3.091E+6	58.65E+6
			679	-5.510E+6	-6.171E+6	-3.091E+6	50.19E+6
702	C3		679	5.963E+6	12.31E+6	4.308E+6	122.2E+6
			700	5.963E+6	12.31E+6	4.308E+6	96.07E+6
703	C3		679	-6.403E+6	-7.685E+6	-4.303E+6	72.51E+6
			680	-6.403E+6	-7.685E+6	-4.303E+6	69.63E+6
705	C3		680	6.520E+6	9.812E+6	4.966E+6	106.3E+6
			701	6.520E+6	9.812E+6	4.966E+6	87.11E+6
706	C3		680	-6.674E+6	-8.154E+6	-4.755E+6	79.52E+6
			681	-6.674E+6	-8.154E+6	-4.755E+6	82.81E+6
708	C3		681	6.611E+6	7.042E+6	4.928E+6	91.12E+6
			702	6.611E+6	7.042E+6	4.928E+6	76.04E+6
709	C3		681	-6.704E+6	-7.723E+6	-4.723E+6	81.63E+6
			682	-6.704E+6	-7.723E+6	-4.723E+6	90.56E+6
711	C3		682	6.461E+6	4.368E+6	4.552E+6	79.85E+6
			703	6.461E+6	4.368E+6	4.552E+6	65.71E+6
712	C3		682	-6.560E+6	-6.612E+6	-4.430E+6	79.06E+6
			683	-6.560E+6	-6.612E+6	-4.430E+6	93.88E+6
714	C3		683	6.119E+6	1.776E+6	3.859E+6	72.01E+6
			704	6.119E+6	1.776E+6	3.859E+6	58.42E+6
715	C3		683	-6.256E+6	-4.400E+6	-3.984E+6	69.54E+6
			684	-6.256E+6	-4.400E+6	-3.984E+6	90.50E+6
717	C3		684	5.615E+6	588300.	3.056E+6	72.71E+6
			705	5.615E+6	588300.	3.056E+6	68.29E+6
718	C3		684	-5.800E+6	-421200.	-3.397E+6	71.27E+6
			685	-5.800E+6	-421200.	-3.397E+6	74.65E+6
720	C3		685	4.968E+6	-463700.	2.267E+6	76.82E+6
			706	4.968E+6	-463700.	2.267E+6	80.80E+6
721	C3		685	-5.188E+6	2.635E+6	-2.614E+6	77.74E+6
			686	-5.188E+6	2.635E+6	-2.614E+6	57.76E+6
723	C3		686	4.158E+6	-1.140E+6	1.288E+6	85.04E+6
			707	4.158E+6	-1.140E+6	1.288E+6	94.57E+6
724	C3		686	-4.361E+6	4.712E+6	-1.555E+6	76.57E+6
			687	-4.361E+6	4.712E+6	-1.555E+6	61.38E+6
726	C3		687	3.137E+6	-1.447E+6	185800.	96.20E+6
			708	3.137E+6	-1.447E+6	185800.	108.4E+6
727	C3		687	-3.082E+6	5.824E+6	-154800.	68.28E+6
			688	-3.082E+6	5.824E+6	-154800.	57.80E+6
729	C3		688	2.157E+6	-1.755E+6	-936700.	106.6E+6
			709	2.157E+6	-1.755E+6	-936700.	121.7E+6
730	C3		688	-1.761E+6	6.092E+6	1.440E+6	57.41E+6
			689	-1.761E+6	6.092E+6	1.440E+6	48.89E+6
732	C3		689	2.431E+6	-2.434E+6	-1.940E+6	116.0E+6
			710	2.431E+6	-2.434E+6	-1.940E+6	136.7E+6
733	C3		689	-3.728E+6	5.641E+6	2.589E+6	56.56E+6
			690	-3.728E+6	5.641E+6	2.589E+6	51.39E+6
735	C3		690	2.861E+6	-2.872E+6	-2.660E+6	128.7E+6
			711	2.861E+6	-2.872E+6	-2.660E+6	153.2E+6
736	C3		690	-2.889E+6	4.810E+6	3.270E+6	41.51E+6
			691	-2.889E+6	4.810E+6	3.270E+6	42.81E+6
738	C3		691	1.311E+6	-2.979E+6	-2.959E+6	124.4E+6
			712	1.311E+6	-2.979E+6	-2.959E+6	150.1E+6
739	C3		691	-8484.	3.600E+6	3.220E+6	20.49E+6
			692	-8484.	3.600E+6	3.220E+6	23.71E+6
741	C3		692	-143900.	-2.690E+6	-2.805E+6	127.3E+6
			713	-143900.	-2.690E+6	-2.805E+6	148.6E+6
742	C3		692	118400.	2.084E+6	2.239E+6	10.28E+6
			693	118400.	2.084E+6	2.239E+6	14.85E+6
744	C3		693	-256100.	-1.168E+6	-2.330E+6	133.5E+6
			714	-256100.	-1.168E+6	-2.330E+6	141.7E+6
746	C3		694	-263500.	12.16E+6	-2.113E+6	78.76E+6
			715	-263500.	12.16E+6	-2.113E+6	71.00E+6
747	C3		694	62180.	2.821E+6	1.956E+6	18.18E+6
			695	62180.	2.821E+6	1.956E+6	13.44E+6
749	C3		695	28230.	14.86E+6	-3.213E+6	91.19E+6
			716	28230.	14.86E+6	-3.213E+6	80.67E+6
750	C3		695	-635600.	4.256E+6	3.042E+6	27.41E+6
			696	-635600.	4.256E+6	3.042E+6	28.36E+6
752	C3		696	1.165E+6	18.47E+6	-4.146E+6	114.9E+6
			717	1.165E+6	18.47E+6	-4.146E+6	96.65E+6
753	C3		696	-2.141E+6	3.581E+6	3.155E+6	29.39E+6
			697	-2.141E+6	3.581E+6	3.155E+6	38.98E+6
755	C3		697	2.899E+6	22.16E+6	-3.549E+6	144.7E+6
			718	2.899E+6	22.16E+6	-3.549E+6	113.7E+6
756	C3		697	-4.186E+6	272900.	1.381E+6	37.35E+6
			698	-4.186E+6	272900.	1.381E+6	40.09E+6
758	C3		698	3.502E+6	23.70E+6	-96710.	153.7E+6
			719	3.502E+6	23.70E+6	-96710.	111.8E+6
759	C3		698	-3.001E+6	-4.437E+6	-1.562E+6	50.55E+6
			699	-3.001E+6	-4.437E+6	-1.562E+6	32.66E+6
761	C3		699	4.343E+6	21.83E+6	4.085E+6	152.6E+6
			720	4.343E+6	21.83E+6	4.085E+6	117.7E+6
762	C3		699	-5.707E+6	-8.738E+6	-4.492E+6	72.67E+6
			700	-5.707E+6	-8.738E+6	-4.492E+6	61.64E+6
764	C3		700	6.015E+6	18.08E+6	6.112E+6	133.9E+6
			721	6.015E+6	18.08E+6	6.112E+6	112.4E+6
765	C3		700	-6.547E+6	-11.17E+6	-5.719E+6	86.47E+6
			701	-6.547E+6	-11.17E+6	-5.719E+6	79.54E+6
767	C3		701	6.481E+6	13.59E+6	6.245E+6	109.9E+6
			722	6.481E+6	13.59E+6	6.245E+6	97.65E+6
768	C3		701	-6.634E+6	-11.61E+6	-5.660E+6	93.43E+6
			702	-6.634E+6	-11.61E+6	-5.660E+6	96.28E+6
770	C3		702	6.383E+6	9.470E+6	5.411E+6	90.75E+6
			723	6.383E+6	9.470E+6	5.411E+6	81.96E+6
771	C3		702	-6.458E+6	-10.72E+6	-5.001E+6	94.09E+6
			703	-6.458E+6	-10.72E+6	-5.001E+6	104.6E+6
773	C3		703	6.016E+6	6.448E+6	4.234E+6	79.49E+6
			724	6.016E+6	6.448E+6	4.234E+6	69.94E+6
774	C3		703	-6.092E+6	-9.421E+6	-4.145E+6	91.01E+6
			704	-6.092E+6	-9.421E+6	-4.145E+6	109.2E+6
776	C3		704	5.460E+6	4.827E+6	3.170E+6	76.81E+6
			725	5.460E+6	4.827E+6	3.170E+6	63.98E+6
777	C3		704	-5.557E+6	-5.979E+6	-3.227E+6	76.05E+6
			705	-5.557E+6	-5.979E+6	-3.227E+6	101.3E+6
779	C3		705	4.744E+6	3.178E+6	2.115E+6	76.12E+6
			726	4.744E+6	3.178E+6	2.115E+6	58.25E+6
780	C3		705	-4.875E+6	-1.892E+6	-2.243E+6	69.69E+6
			706	-4.875E+6	-1.892E+6	-2.243E+6	85.04E+6
782	C3		706	3.883E+6	2.622E+6	894000.	82.08E+6
			727	3.883E+6	2.622E+6	894000.	60.92E+6
783	C3		706	-4.050E+6	1.690E+6	-1.145E+6	78.86E+6
			707	-4.050E+6	1.690E+6	-1.145E+6	65.25E+6
785	C3		707	2.895E+6	2.784E+6	-323900.	93.21E+6
			728	2.895E+6	2.784E+6	-323900.	70.43E+6
786	C3		707	-3.053E+6	4.433E+6	103000.	80.77E+6
			708	-3.053E+6	4.433E+6	103000.	59.42E+6
788	C3		708	1.797E+6	3.353E+6	-1.537E+6	107.6E+6
			729	1.797E+6	3.353E+6	-1.537E+6	80.08E+6
789	C3		708	-1.784E+6	6.299E+6	1.500E+6	76.06E+6
			709	-1.784E+6	6.299E+6	1.500E+6	59.26E+6
791	C3		709	911800.	3.909E+6	-2.639E+6	122.3E+6
			730	911800.	3.909E+6	-2.639E+6	90.25E+6
792	C3		709	-802400.	7.301E+6	2.869E+6	68.80E+6
			710	-802400.	7.301E+6	2.869E+6	55.03E+6
794	C3		710	1.220E+6	4.090E+6	-3.486E+6	137.3E+6
			731	1.220E+6	4.090E+6	-3.486E+6	103.8E+6
795	C3		710	-2.473E+6	7.444E+6	3.711E+6	67.23E+6
			711	-2.473E+6	7.444E+6	3.711E+6	58.03E+6
797	C3		711	1.858E+6	4.374E+6	-3.961E+6	153.7E+6
			732	1.858E+6	4.374E+6	-3.961E+6	118.3E+6
798	C3		711	-2.365E+6	6.864E+6	3.989E+6	53.52E+6
			712	-2.365E+6	6.864E+6	3.989E+6	52.96E+6
800	C3		712	425500.	5.106E+6	-4.027E+6	152.8E+6
			733	425500.	5.106E+6	-4.027E+6	111.2E+6
801	C3		712	877100.	5.446E+6	3.725E+6	33.61E+6
			713	877100.	5.446E+6	3.725E+6	37.31E+6
803	C3		713	-985800.	6.165E+6	-3.751E+6	167.6E+6
			734	-985800.	6.165E+6	-3.751E+6	116.0E+6
804	C3		713	601400.	3.256E+6	2.630E+6	16.03E+6
			714	601400.	3.256E+6	2.630E+6	24.22E+6
806	C3		714	-719800.	8.755E+6	-3.303E+6	176.1E+6
			735	-719800.	8.755E+6	-3.303E+6	102.9E+6
808	C3		715	-967500.	10.83E+6	-3.004E+6	60.91E+6
			736	-967500.	10.83E+6	-3.004E+6	62.83E+6
809	C3		715	928600.	4.660E+6	2.717E+6	34.10E+6
			716	928600.	4.660E+6	2.717E+6	22.87E+6
811	C3		716	-936000.	14.70E+6	-4.379E+6	76.01E+6
			737	-936000.	14.70E+6	-4.379E+6	78.93E+6
812	C3		716	45680.	8.153E+6	4.534E+6	49.57E+6
			717	45680.	8.153E+6	4.534E+6	45.84E+6
814	C3		717	226800.	20.84E+6	-6.720E+6	100.5E+6
			738	226800.	20.84E+6	-6.720E+6	99.10E+6
815	C3		717	-1.331E+6	9.116E+6	5.939E+6	57.47E+6
			718	-1.331E+6	9.116E+6	5.939E+6	70.89E+6
817	C3		718	2.246E+6	30.45E+6	-8.489E+6	155.5E+6
			739	2.246E+6	30.45E+6	-8.489E+6	148.8E+6
818	C3		718	-4.059E+6	4.042E+6	3.961E+6	42.65E+6
			719	-4.059E+6	4.042E+6	3.961E+6	76.23E+6
820	C3		719	2.847E+6	36.59E+6	-1.965E+6	217.2E+6
			740	2.847E+6	36.59E+6	-1.965E+6	164.7E+6
821	C3		719	-2.115E+6	-6.598E+6	-2.651E+6	78.56E+6
			720	-2.115E+6	-6.598E+6	-2.651E+6	41.70E+6
823	C3		720	3.860E+6	32.83E+6	7.326E+6	186.7E+6
			741	3.860E+6	32.83E+6	7.326E+6	149.6E+6
824	C3		720	-5.783E+6	-14.30E+6	-7.078E+6	111.8E+6
			721	-5.783E+6	-14.30E+6	-7.078E+6	92.44E+6
826	C3		721	5.933E+6	24.22E+6	9.007E+6	146.3E+6
			742	5.933E+6	24.22E+6	9.007E+6	130.7E+6
827	C3		721	-6.492E+6	-17.09E+6	-7.720E+6	110.0E+6
			722	-6.492E+6	-17.09E+6	-7.720E+6	105.5E+6
829	C3		722	6.259E+6	16.31E+6	7.658E+6	102.7E+6
			743	6.259E+6	16.31E+6	7.658E+6	103.8E+6
830	C3		722	-6.382E+6	-16.48E+6	-6.569E+6	112.7E+6
			723	-6.382E+6	-16.48E+6	-6.569E+6	118.8E+6
832	C3		723	5.961E+6	10.58E+6	5.574E+6	80.32E+6
			744	5.961E+6	10.58E+6	5.574E+6	81.62E+6
833	C3		723	-6.015E+6	-14.26E+6	-5.034E+6	108.6E+6
			724	-6.015E+6	-14.26E+6	-5.034E+6	124.5E+6
835	C3		724	5.398E+6	7.033E+6	3.805E+6	69.98E+6
			745	5.398E+6	7.033E+6	3.805E+6	67.15E+6
836	C3		724	-5.456E+6	-11.52E+6	-3.621E+6	100.6E+6
			725	-5.456E+6	-11.52E+6	-3.621E+6	124.1E+6
838	C3		725	4.638E+6	4.810E+6	2.221E+6	66.23E+6
			746	4.638E+6	4.810E+6	2.221E+6	57.93E+6
839	C3		725	-4.727E+6	-7.994E+6	-2.336E+6	85.99E+6
			726	-4.727E+6	-7.994E+6	-2.336E+6	116.8E+6
841	C3		726	3.726E+6	4.655E+6	776200.	72.20E+6
			747	3.726E+6	4.655E+6	776200.	58.01E+6
842	C3		726	-3.853E+6	-2.849E+6	-1.070E+6	73.00E+6
			727	-3.853E+6	-2.849E+6	-1.070E+6	96.44E+6
844	C3		727	2.697E+6	5.011E+6	-525800.	81.50E+6
			748	2.697E+6	5.011E+6	-525800.	61.02E+6
845	C3		727	-2.848E+6	1.440E+6	263700.	84.99E+6
			728	-2.848E+6	1.440E+6	263700.	73.27E+6
847	C3		728	1.568E+6	5.964E+6	-1.918E+6	94.94E+6
			749	1.568E+6	5.964E+6	-1.918E+6	67.63E+6
848	C3		728	-1.707E+6	4.925E+6	1.699E+6	89.61E+6
			729	-1.707E+6	4.925E+6	1.699E+6	61.87E+6
850	C3		729	405000.	7.413E+6	-3.313E+6	112.0E+6
			750	405000.	7.413E+6	-3.313E+6	77.17E+6
851	C3		729	-435300.	7.532E+6	3.190E+6	87.51E+6
			730	-435300.	7.532E+6	3.190E+6	64.82E+6
853	C3		730	-428200.	8.985E+6	-4.549E+6	134.0E+6
			751	-428200.	8.985E+6	-4.549E+6	92.03E+6
854	C3		730	340300.	9.123E+6	4.501E+6	81.91E+6
			731	340300.	9.123E+6	4.501E+6	69.91E+6
856	C3		731	-77000.	10.30E+6	-5.390E+6	152.2E+6
			752	-77000.	10.30E+6	-5.390E+6	101.2E+6
857	C3		731	-1.173E+6	9.577E+6	5.138E+6	78.58E+6
			732	-1.173E+6	9.577E+6	5.138E+6	66.34E+6
859	C3		732	863900.	11.68E+6	-5.652E+6	174.3E+6
			753	863900.	11.68E+6	-5.652E+6	113.1E+6
860	C3		732	-1.865E+6	8.943E+6	5.021E+6	64.85E+6
			733	-1.865E+6	8.943E+6	5.021E+6	63.45E+6
862	C3		733	-496800.	13.62E+6	-5.384E+6	180.2E+6
			754	-496800.	13.62E+6	-5.384E+6	114.4E+6
863	C3		733	1.964E+6	7.093E+6	4.498E+6	46.20E+6
			734	1.964E+6	7.093E+6	4.498E+6	51.69E+6
865	C3		734	-1.869E+6	15.71E+6	-4.861E+6	203.0E+6
			755	-1.869E+6	15.71E+6	-4.861E+6	133.2E+6
866	C3		734	1.081E+6	4.215E+6	3.186E+6	21.29E+6
			735	1.081E+6	4.215E+6	3.186E+6	32.65E+6
868	C3		735	-1.183E+6	19.64E+6	-4.407E+6	213.1E+6
			756	-1.183E+6	19.64E+6	-4.407E+6	141.1E+6
870	C3		736	-1.758E+6	8.122E+6	-2.897E+6	41.46E+6
			757	-1.758E+6	8.122E+6	-2.897E+6	49.48E+6
871	C3		736	1.782E+6	6.043E+6	2.781E+6	47.94E+6
			737	1.782E+6	6.043E+6	2.781E+6	29.72E+6
873	C3		737	-1.802E+6	11.73E+6	-3.997E+6	59.78E+6
			758	-1.802E+6	11.73E+6	-3.997E+6	71.66E+6
874	C3		737	639700.	12.35E+6	5.095E+6	79.35E+6
			738	639700.	12.35E+6	5.095E+6	63.91E+6
876	C3		738	-722900.	18.02E+6	-6.989E+6	91.12E+6
			759	-722900.	18.02E+6	-6.989E+6	110.1E+6
877	C3		738	-489000.	18.44E+6	9.049E+6	109.4E+6
			739	-489000.	18.44E+6	9.049E+6	115.7E+6
879	C3		739	1.374E+6	34.00E+6	-13.39E+6	164.7E+6
			760	1.374E+6	34.00E+6	-13.39E+6	214.6E+6
880	C3		739	-4.060E+6	18.21E+6	12.59E+6	103.6E+6
			740	-4.060E+6	18.21E+6	12.59E+6	176.1E+6
882	C3		740	2.124E+6	81.37E+6	-8.647E+6	374.8E+6
			761	2.124E+6	81.37E+6	-8.647E+6	487.1E+6
883	C3		740	-507000.	-16.42E+6	-7.311E+6	156.9E+6
			741	-507000.	-16.42E+6	-7.311E+6	80.68E+6
885	C3		741	2.869E+6	44.75E+6	10.20E+6	248.4E+6
			762	2.869E+6	44.75E+6	10.20E+6	245.6E+6
886	C3		741	-5.392E+6	-25.43E+6	-11.18E+6	176.1E+6
			742	-5.392E+6	-25.43E+6	-11.18E+6	151.0E+6
888	C3		742	5.106E+6	28.27E+6	12.13E+6	168.1E+6
			763	5.106E+6	28.27E+6	12.13E+6	178.8E+6
889	C3		742	-5.841E+6	-26.36E+6	-9.969E+6	143.8E+6
			743	-5.841E+6	-26.36E+6	-9.969E+6	153.0E+6
891	C3		743	5.171E+6	15.81E+6	7.945E+6	98.32E+6
			764	5.171E+6	15.81E+6	7.945E+6	111.8E+6
892	C3		743	-5.598E+6	-22.52E+6	-6.891E+6	133.9E+6
			744	-5.598E+6	-22.52E+6	-6.891E+6	149.5E+6
894	C3		744	4.758E+6	9.319E+6	4.499E+6	59.48E+6
			765	4.758E+6	9.319E+6	4.499E+6	68.21E+6
895	C3		744	-5.152E+6	-17.94E+6	-4.447E+6	122.7E+6
			745	-5.152E+6	-17.94E+6	-4.447E+6	147.3E+6
897	C3		745	4.159E+6	6.628E+6	2.332E+6	53.34E+6
			766	4.159E+6	6.628E+6	2.332E+6	56.99E+6
898	C3		745	-4.523E+6	-14.15E+6	-2.719E+6	112.3E+6
			746	-4.523E+6	-14.15E+6	-2.719E+6	143.9E+6
900	C3		746	3.402E+6	6.132E+6	883300.	59.29E+6
			767	3.402E+6	6.132E+6	883300.	55.38E+6
901	C3		746	-3.713E+6	-8.982E+6	-1.293E+6	91.70E+6
			747	-3.713E+6	-8.982E+6	-1.293E+6	130.1E+6
903	C3		747	2.488E+6	5.798E+6	-426700.	64.96E+6
			768	2.488E+6	5.798E+6	-426700.	54.57E+6
904	C3		747	-2.749E+6	-3.448E+6	95230.	79.22E+6
			748	-2.749E+6	-3.448E+6	95230.	108.0E+6
906	C3		748	1.429E+6	6.630E+6	-1.910E+6	75.79E+6
			769	1.429E+6	6.630E+6	-1.910E+6	59.43E+6
907	C3		748	-1.646E+6	1.601E+6	1.579E+6	94.58E+6
			749	-1.646E+6	1.601E+6	1.579E+6	81.59E+6
909	C3		749	265900.	8.283E+6	-3.448E+6	90.87E+6
			770	265900.	8.283E+6	-3.448E+6	68.59E+6
910	C3		749	-423600.	5.949E+6	3.209E+6	102.4E+6
			750	-423600.	5.949E+6	3.209E+6	67.72E+6
912	C3		750	-897000.	10.59E+6	-5.079E+6	115.5E+6
			771	-897000.	10.59E+6	-5.079E+6	90.23E+6
913	C3		750	833800.	9.438E+6	4.925E+6	108.4E+6
			751	833800.	9.438E+6	4.925E+6	82.46E+6
915	C3		751	-1.667E+6	13.38E+6	-6.668E+6	144.3E+6
			772	-1.667E+6	13.38E+6	-6.668E+6	111.8E+6
916	C3		751	1.478E+6	11.71E+6	6.400E+6	106.2E+6
			752	1.478E+6	11.71E+6	6.400E+6	91.69E+6
918	C3		752	-1.234E+6	16.36E+6	-7.791E+6	169.3E+6
			773	-1.234E+6	16.36E+6	-7.791E+6	126.8E+6
919	C3		752	19800.	12.32E+6	6.943E+6	92.52E+6
			753	19800.	12.32E+6	6.943E+6	83.95E+6
921	C3		753	165300.	19.42E+6	-7.840E+6	193.0E+6
			774	165300.	19.42E+6	-7.840E+6	134.8E+6
922	C3		753	-1.675E+6	11.24E+6	6.276E+6	76.98E+6
			754	-1.675E+6	11.24E+6	6.276E+6	76.26E+6
924	C3		754	-1.146E+6	22.93E+6	-6.807E+6	205.1E+6
			775	-1.146E+6	22.93E+6	-6.807E+6	142.9E+6
925	C3		754	3.054E+6	8.582E+6	5.293E+6	56.95E+6
			755	3.054E+6	8.582E+6	5.293E+6	65.34E+6
927	C3		755	-2.456E+6	26.10E+6	-5.631E+6	231.8E+6
			776	-2.456E+6	26.10E+6	-5.631E+6	167.7E+6
928	C3		755	1.224E+6	4.853E+6	3.587E+6	23.61E+6
			756	1.224E+6	4.853E+6	3.587E+6	37.95E+6
930	C3		756	-1.413E+6	31.15E+6	-5.176E+6	239.9E+6
			777	-1.413E+6	31.15E+6	-5.176E+6	178.0E+6
932	C3		757	-871900.	5.212E+6	-848200.	25.27E+6
			778	-871900.	5.212E+6	-848200.	43.75E+6
933	C3		757	1.235E+6	6.244E+6	1.529E+6	47.61E+6
			758	1.235E+6	6.244E+6	1.529E+6	25.64E+6
935	C3		758	-80010.	6.448E+6	-1.104E+6	31.16E+6
			779	-80010.	6.448E+6	-1.104E+6	55.01E+6
936	C3		758	-102200.	14.89E+6	3.040E+6	94.38E+6
			759	-102200.	14.89E+6	3.040E+6	65.81E+6
938	C3		759	807400.	9.426E+6	-2.304E+6	49.90E+6
			780	807400.	9.426E+6	-2.304E+6	91.87E+6
939	C3		759	-880300.	26.51E+6	5.324E+6	165.3E+6
			760	-880300.	26.51E+6	5.324E+6	138.7E+6
941	C3		760	2.259E+6	14.26E+6	3.183E+6	74.13E+6
			781	2.259E+6	14.26E+6	3.183E+6	159.8E+6
942	C3		760	-4.758E+6	52.31E+6	-628900.	263.5E+6
			761	-4.758E+6	52.31E+6	-628900.	349.7E+6
944	C3		761	-946500.	-6.216E+6	-6.396E+6	110.3E+6
			782	-946500.	-6.216E+6	-6.396E+6	67.85E+6
945	C3		761	4.075E+6	-41.02E+6	14.88E+6	351.6E+6
			762	4.075E+6	-41.02E+6	14.88E+6	188.1E+6
947	C3		762	-5.216E+6	63.59E+6	-13.97E+6	293.5E+6
			783	-5.216E+6	63.59E+6	-13.97E+6	453.8E+6
948	C3		762	-2.760E+6	-46.32E+6	-14.50E+6	278.7E+6
			763	-2.760E+6	-46.32E+6	-14.50E+6	247.5E+6
950	C3		763	-599700.	24.05E+6	12.51E+6	116.0E+6
			784	-599700.	24.05E+6	12.51E+6	204.8E+6
951	C3		763	-3.521E+6	-39.04E+6	-10.27E+6	186.3E+6
			764	-3.521E+6	-39.04E+6	-10.27E+6	215.6E+6
953	C3		764	1.148E+6	8.570E+6	3.875E+6	48.15E+6
			785	1.148E+6	8.570E+6	3.875E+6	82.49E+6
954	C3		764	-3.796E+6	-28.57E+6	-5.226E+6	146.6E+6
			765	-3.796E+6	-28.57E+6	-5.226E+6	179.5E+6
956	C3		765	1.982E+6	5.318E+6	1.459E+6	31.95E+6
			786	1.982E+6	5.318E+6	1.459E+6	46.31E+6
957	C3		765	-3.744E+6	-21.22E+6	-2.831E+6	130.6E+6
			766	-3.744E+6	-21.22E+6	-2.831E+6	166.7E+6
959	C3		766	2.250E+6	4.571E+6	350000.	30.59E+6
			787	2.250E+6	4.571E+6	350000.	35.00E+6
960	C3		766	-3.386E+6	-15.84E+6	-1.399E+6	118.1E+6
			767	-3.386E+6	-15.84E+6	-1.399E+6	157.6E+6
962	C3		767	2.051E+6	4.417E+6	-728000.	40.77E+6
			788	2.051E+6	4.417E+6	-728000.	37.60E+6
963	C3		767	-2.739E+6	-10.62E+6	-150300.	99.78E+6
			768	-2.739E+6	-10.62E+6	-150300.	145.2E+6
965	C3		768	1.483E+6	5.818E+6	-1.919E+6	54.86E+6
			789	1.483E+6	5.818E+6	-1.919E+6	46.06E+6
966	C3		768	-1.863E+6	-4.015E+6	1.180E+6	86.59E+6
			769	-1.863E+6	-4.015E+6	1.180E+6	120.3E+6
968	C3		769	639300.	7.452E+6	-3.163E+6	68.52E+6
			790	639300.	7.452E+6	-3.163E+6	55.08E+6
969	C3		769	-791700.	1.840E+6	2.706E+6	106.0E+6
			770	-791700.	1.840E+6	2.706E+6	91.12E+6
971	C3		770	-405300.	9.613E+6	-4.690E+6	84.05E+6
			791	-405300.	9.613E+6	-4.690E+6	73.27E+6
972	C3		770	424100.	7.176E+6	4.499E+6	121.5E+6
			771	424100.	7.176E+6	4.499E+6	79.82E+6
974	C3		771	-1.491E+6	12.54E+6	-6.520E+6	110.7E+6
			792	-1.491E+6	12.54E+6	-6.520E+6	97.08E+6
975	C3		771	1.631E+6	11.90E+6	6.570E+6	134.8E+6
			772	1.631E+6	11.90E+6	6.570E+6	102.0E+6
977	C3		772	-2.188E+6	16.54E+6	-8.691E+6	140.9E+6
			793	-2.188E+6	16.54E+6	-8.691E+6	123.0E+6
978	C3		772	2.181E+6	15.41E+6	8.611E+6	134.3E+6
			773	2.181E+6	15.41E+6	8.611E+6	115.7E+6
980	C3		773	-1.668E+6	21.99E+6	-10.81E+6	173.9E+6
			794	-1.668E+6	21.99E+6	-10.81E+6	147.2E+6
981	C3		773	724300.	16.44E+6	9.490E+6	113.5E+6
			774	724300.	16.44E+6	9.490E+6	110.2E+6
983	C3		774	378300.	28.46E+6	-11.13E+6	215.5E+6
			795	378300.	28.46E+6	-11.13E+6	161.9E+6
984	C3		774	-2.337E+6	14.10E+6	7.884E+6	91.64E+6
			775	-2.337E+6	14.10E+6	7.884E+6	95.06E+6
986	C3		775	-845000.	34.18E+6	-7.859E+6	226.8E+6
			796	-845000.	34.18E+6	-7.859E+6	167.2E+6
987	C3		775	3.745E+6	9.701E+6	5.588E+6	61.40E+6
			776	3.745E+6	9.701E+6	5.588E+6	75.31E+6
989	C3		776	-2.050E+6	37.95E+6	-4.810E+6	251.3E+6
			797	-2.050E+6	37.95E+6	-4.810E+6	200.0E+6
990	C3		776	396200.	4.572E+6	3.179E+6	19.42E+6
			777	396200.	4.572E+6	3.179E+6	33.92E+6
992	C3		777	-957700.	42.48E+6	-4.755E+6	248.0E+6
			798	-957700.	42.48E+6	-4.755E+6	208.0E+6
994	C3		778	4.487E+6	2.832E+6	2.518E+6	39.49E+6
			799	4.487E+6	2.832E+6	2.518E+6	43.03E+6
995	C3		778	-2.918E+6	5.730E+6	-904600.	52.16E+6
			779	-2.918E+6	5.730E+6	-904600.	25.47E+6
997	C3		779	7.259E+6	243700.	3.419E+6	58.78E+6
			800	7.259E+6	243700.	3.419E+6	56.33E+6
998	C3		779	-4.251E+6	15.07E+6	-1.748E+6	110.8E+6
			780	-4.251E+6	15.07E+6	-1.748E+6	72.97E+6
1000	C3		780	9.135E+6	-4.722E+6	6.149E+6	108.9E+6
			801	9.135E+6	-4.722E+6	6.149E+6	68.71E+6
1001	C3		780	-5.511E+6	33.67E+6	-4.433E+6	198.2E+6
			781	-5.511E+6	33.67E+6	-4.433E+6	191.9E+6
1003	C3		781	10.81E+6	-12.70E+6	3.842E+6	176.3E+6
			802	10.81E+6	-12.70E+6	3.842E+6	110.6E+6
1004	C3		781	-6.976E+6	22.80E+6	-3.015E+6	135.8E+6
			782	-6.976E+6	22.80E+6	-3.015E+6	178.2E+6
1006	C3		782	11.05E+6	-5.609E+6	7.269E+6	138.9E+6
			803	11.05E+6	-5.609E+6	7.269E+6	87.69E+6
1007	C3		782	-3.218E+6	23.86E+6	1.744E+6	85.99E+6
			783	-3.218E+6	23.86E+6	1.744E+6	223.6E+6
1009	C3		783	12.66E+6	-63.99E+6	10.19E+6	472.0E+6
			804	12.66E+6	-63.99E+6	10.19E+6	332.0E+6
1010	C3		783	-4.182E+6	-104.7E+6	1.711E+6	649.4E+6
			784	-4.182E+6	-104.7E+6	1.711E+6	484.6E+6
1012	C3		784	8.893E+6	-20.73E+6	-13.47E+6	222.6E+6
			805	8.893E+6	-20.73E+6	-13.47E+6	126.5E+6
1013	C3		784	-4.333E+6	-46.57E+6	-89030.	223.1E+6
			785	-4.333E+6	-46.57E+6	-89030.	285.0E+6
1015	C3		785	7.335E+6	-3.894E+6	-3.956E+6	95.23E+6
			806	7.335E+6	-3.894E+6	-3.956E+6	60.17E+6
1016	C3		785	-4.404E+6	-32.34E+6	-497200.	149.1E+6
			786	-4.404E+6	-32.34E+6	-497200.	195.0E+6
1018	C3		786	6.337E+6	252700.	-1.763E+6	48.15E+6
			807	6.337E+6	252700.	-1.763E+6	47.45E+6
1019	C3		786	-4.256E+6	-23.79E+6	-367000.	137.7E+6
			787	-4.256E+6	-23.79E+6	-367000.	179.7E+6
1021	C3		787	5.435E+6	2.304E+6	-1.551E+6	31.71E+6
			808	5.435E+6	2.304E+6	-1.551E+6	37.61E+6
1022	C3		787	-3.834E+6	-18.16E+6	130700.	128.6E+6
			788	-3.834E+6	-18.16E+6	130700.	173.6E+6
1024	C3		788	4.482E+6	4.393E+6	-1.904E+6	45.99E+6
			809	4.482E+6	4.393E+6	-1.904E+6	44.79E+6
1025	C3		788	-3.135E+6	-11.65E+6	954300.	107.6E+6
			789	-3.135E+6	-11.65E+6	954300.	159.0E+6
1027	C3		789	3.431E+6	5.629E+6	-2.641E+6	55.21E+6
			810	3.431E+6	5.629E+6	-2.641E+6	49.67E+6
1028	C3		789	-2.223E+6	-4.779E+6	2.082E+6	95.08E+6
			790	-2.223E+6	-4.779E+6	2.082E+6	135.2E+6
1030	C3		790	2.280E+6	7.476E+6	-3.812E+6	66.28E+6
			811	2.280E+6	7.476E+6	-3.812E+6	57.28E+6
1031	C3		790	-1.130E+6	1.865E+6	3.526E+6	119.7E+6
			791	-1.130E+6	1.865E+6	3.526E+6	104.6E+6
1033	C3		791	1.064E+6	9.838E+6	-5.216E+6	79.23E+6
			812	1.064E+6	9.838E+6	-5.216E+6	67.45E+6
1034	C3		791	82280.	8.307E+6	5.349E+6	138.3E+6
			792	82280.	8.307E+6	5.349E+6	88.01E+6
1036	C3		792	-84350.	12.85E+6	-6.985E+6	94.96E+6
			813	-84350.	12.85E+6	-6.985E+6	87.59E+6
1037	C3		792	1.223E+6	14.66E+6	7.708E+6	158.6E+6
			793	1.223E+6	14.66E+6	7.708E+6	116.0E+6
1039	C3		793	-779000.	17.21E+6	-9.506E+6	117.3E+6
			814	-779000.	17.21E+6	-9.506E+6	115.2E+6
1040	C3		793	1.674E+6	20.66E+6	10.74E+6	166.3E+6
			794	1.674E+6	20.66E+6	10.74E+6	139.1E+6
1042	C3		794	-240400.	25.12E+6	-13.44E+6	159.8E+6
			815	-240400.	25.12E+6	-13.44E+6	152.3E+6
1043	C3		794	204100.	24.18E+6	13.42E+6	155.2E+6
			795	204100.	24.18E+6	13.42E+6	146.6E+6
1045	C3		795	2.526E+6	39.41E+6	-17.19E+6	241.8E+6
			816	2.526E+6	39.41E+6	-17.19E+6	201.7E+6
1046	C3		795	-4.720E+6	19.69E+6	11.01E+6	117.4E+6
			796	-4.720E+6	19.69E+6	11.01E+6	134.3E+6
1048	C3		796	789400.	50.03E+6	-7.101E+6	275.1E+6
			817	789400.	50.03E+6	-7.101E+6	194.0E+6
1049	C3		796	3.441E+6	8.667E+6	3.438E+6	44.11E+6
			797	3.441E+6	8.667E+6	3.438E+6	70.41E+6
1051	C3		797	470000.	50.86E+6	425300.	255.1E+6
			818	470000.	50.86E+6	425300.	234.2E+6
1052	C3		797	-2.528E+6	2.110E+6	1.080E+6	14.89E+6
			798	-2.528E+6	2.110E+6	1.080E+6	26.59E+6
1054	C3		798	1.778E+6	50.34E+6	-2.644E+6	249.3E+6
			819	1.778E+6	50.34E+6	-2.644E+6	234.1E+6
1056	C3		799	4.556E+6	423700.	4.090E+6	30.39E+6
			820	4.556E+6	423700.	4.090E+6	35.94E+6
1057	C3		799	-6.469E+6	5.743E+6	-3.058E+6	69.70E+6
			800	-6.469E+6	5.743E+6	-3.058E+6	43.10E+6
1059	C3		800	7.738E+6	-3.848E+6	5.435E+6	67.29E+6
			821	7.738E+6	-3.848E+6	5.435E+6	59.77E+6
1060	C3		800	-7.796E+6	13.16E+6	-5.506E+6	116.8E+6
			801	-7.796E+6	13.16E+6	-5.506E+6	89.03E+6
1062	C3		801	9.386E+6	-9.967E+6	8.276E+6	109.6E+6
			822	9.386E+6	-9.967E+6	8.276E+6	100.3E+6
1063	C3		801	-9.925E+6	21.60E+6	-8.667E+6	172.5E+6
			802	-9.925E+6	21.60E+6	-8.667E+6	155.6E+6
1065	C3		802	9.696E+6	-22.11E+6	12.46E+6	174.9E+6
			823	9.696E+6	-22.11E+6	12.46E+6	164.7E+6
1066	C3		802	-9.700E+6	33.53E+6	-5.337E+6	205.9E+6
			803	-9.700E+6	33.53E+6	-5.337E+6	264.5E+6
1068	C3		803	7.538E+6	-53.63E+6	11.01E+6	332.4E+6
			824	7.538E+6	-53.63E+6	11.01E+6	295.7E+6
1069	C3		803	-10.32E+6	-26.65E+6	-13.24E+6	291.7E+6
			804	-10.32E+6	-26.65E+6	-13.24E+6	149.3E+6
1071	C3		804	5.027E+6	-33.81E+6	-6.091E+6	195.3E+6
			825	5.027E+6	-33.81E+6	-6.091E+6	219.2E+6
1072	C3		804	-5.556E+6	-45.01E+6	14.00E+6	292.3E+6
			805	-5.556E+6	-45.01E+6	14.00E+6	231.4E+6
1074	C3		805	3.288E+6	-21.83E+6	-10.48E+6	146.5E+6
			826	3.288E+6	-21.83E+6	-10.48E+6	137.4E+6
1075	C3		805	-5.079E+6	-40.70E+6	9.195E+6	204.4E+6
			806	-5.079E+6	-40.70E+6	9.195E+6	214.4E+6
1077	C3		806	3.331E+6	-10.17E+6	-6.945E+6	85.91E+6
			827	3.331E+6	-10.17E+6	-6.945E+6	70.28E+6
1078	C3		806	-4.933E+6	-31.23E+6	3.913E+6	167.2E+6
			807	-4.933E+6	-31.23E+6	3.913E+6	204.7E+6
1080	C3		807	3.578E+6	-3.496E+6	-4.052E+6	44.50E+6
			828	3.578E+6	-3.496E+6	-4.052E+6	34.20E+6
1081	C3		807	-4.706E+6	-24.12E+6	1.877E+6	154.0E+6
			808	-4.706E+6	-24.12E+6	1.877E+6	195.7E+6
1083	C3		808	3.618E+6	62230.	-2.796E+6	21.24E+6
			829	3.618E+6	62230.	-2.796E+6	23.76E+6
1084	C3		808	-4.263E+6	-18.56E+6	1.439E+6	142.1E+6
			809	-4.263E+6	-18.56E+6	1.439E+6	189.3E+6
1086	C3		809	3.380E+6	2.097E+6	-2.708E+6	26.54E+6
			830	3.380E+6	2.097E+6	-2.708E+6	29.67E+6
1087	C3		809	-3.587E+6	-12.76E+6	1.810E+6	122.5E+6
			810	-3.587E+6	-12.76E+6	1.810E+6	177.9E+6
1089	C3		810	2.939E+6	4.650E+6	-3.203E+6	41.04E+6
			831	2.939E+6	4.650E+6	-3.203E+6	41.93E+6
1090	C3		810	-2.761E+6	-5.153E+6	2.686E+6	108.4E+6
			811	-2.761E+6	-5.153E+6	2.686E+6	151.7E+6
1092	C3		811	2.412E+6	6.817E+6	-3.936E+6	53.27E+6
			832	2.412E+6	6.817E+6	-3.936E+6	52.70E+6
1093	C3		811	-1.829E+6	2.184E+6	3.952E+6	136.3E+6
			812	-1.829E+6	2.184E+6	3.952E+6	119.0E+6
1095	C3		812	1.920E+6	9.034E+6	-4.977E+6	65.32E+6
			833	1.920E+6	9.034E+6	-4.977E+6	64.14E+6
1096	C3		812	-883900.	9.653E+6	5.590E+6	160.0E+6
			813	-883900.	9.653E+6	5.590E+6	99.89E+6
1098	C3		813	1.723E+6	11.52E+6	-6.220E+6	78.45E+6
			834	1.723E+6	11.52E+6	-6.220E+6	78.14E+6
1099	C3		813	-186300.	17.65E+6	7.740E+6	181.9E+6
			814	-186300.	17.65E+6	7.740E+6	123.7E+6
1101	C3		814	2.363E+6	14.55E+6	-7.805E+6	93.84E+6
			835	2.363E+6	14.55E+6	-7.805E+6	97.88E+6
1102	C3		814	-383100.	27.01E+6	11.03E+6	207.5E+6
			815	-383100.	27.01E+6	11.03E+6	153.4E+6
1104	C3		815	4.740E+6	20.23E+6	-10.92E+6	119.8E+6
			836	4.740E+6	20.23E+6	-10.92E+6	137.6E+6
1105	C3		815	-2.566E+6	38.36E+6	17.12E+6	237.2E+6
			816	-2.566E+6	38.36E+6	17.12E+6	195.9E+6
1107	C3		816	11.36E+6	42.95E+6	-22.38E+6	219.7E+6
			837	11.36E+6	42.95E+6	-22.38E+6	288.6E+6
1108	C3		816	-11.36E+6	42.38E+6	22.44E+6	217.9E+6
			817	-11.36E+6	42.38E+6	22.44E+6	285.3E+6
1110	C3		817	12.97E+6	117.5E+6	2.376E+6	544.0E+6
			838	12.97E+6	117.5E+6	2.376E+6	736.0E+6
1111	C3		817	562500.	-7.992E+6	-10.03E+6	82.62E+6
			818	562500.	-7.992E+6	-10.03E+6	31.74E+6
1113	C3		818	8.400E+6	50.40E+6	9.196E+6	231.6E+6
			839	8.400E+6	50.40E+6	9.196E+6	339.6E+6
1114	C3		818	-7.797E+6	3853.	-67710.	39.02E+6
			819	-7.797E+6	3853.	-67710.	36.31E+6
1116	C3		819	4.930E+6	62.49E+6	2.192E+6	279.0E+6
			840	4.930E+6	62.49E+6	2.192E+6	423.9E+6
1118	C3		820	2.816E+6	-1.269E+6	3.738E+6	21.53E+6
			841	2.816E+6	-1.269E+6	3.738E+6	24.95E+6
1119	C3		820	-5.588E+6	5.026E+6	-3.770E+6	60.13E+6
			821	-5.588E+6	5.026E+6	-3.770E+6	39.92E+6
1121	C3		821	5.317E+6	-5.035E+6	5.058E+6	50.38E+6
			842	5.317E+6	-5.035E+6	5.058E+6	55.59E+6
1122	C3		821	-7.211E+6	9.549E+6	-6.302E+6	92.07E+6
			822	-7.211E+6	9.549E+6	-6.302E+6	76.82E+6
1124	C3		822	6.889E+6	-9.817E+6	7.022E+6	78.92E+6
			843	6.889E+6	-9.817E+6	7.022E+6	90.39E+6
1125	C3		822	-9.001E+6	12.73E+6	-9.577E+6	116.1E+6
			823	-9.001E+6	12.73E+6	-9.577E+6	117.9E+6
1127	C3		823	7.059E+6	-16.47E+6	8.256E+6	105.2E+6
			844	7.059E+6	-16.47E+6	8.256E+6	130.7E+6
1128	C3		823	-7.845E+6	10.42E+6	-11.75E+6	90.67E+6
			824	-7.845E+6	10.42E+6	-11.75E+6	135.3E+6
1130	C3		824	5.640E+6	-20.96E+6	3.826E+6	108.0E+6
			845	5.640E+6	-20.96E+6	3.826E+6	159.9E+6
1131	C3		824	-6.071E+6	-14.89E+6	2.201E+6	156.2E+6
			825	-6.071E+6	-14.89E+6	2.201E+6	86.48E+6
1133	C3		825	3.097E+6	-19.68E+6	-3.602E+6	98.11E+6
			846	3.097E+6	-19.68E+6	-3.602E+6	133.8E+6
1134	C3		825	-2.263E+6	-26.14E+6	7.786E+6	160.4E+6
			826	-2.263E+6	-26.14E+6	7.786E+6	125.2E+6
1136	C3		826	1.275E+6	-14.93E+6	-6.096E+6	79.67E+6
			847	1.275E+6	-14.93E+6	-6.096E+6	95.63E+6
1137	C3		826	-2.127E+6	-29.87E+6	7.600E+6	151.1E+6
			827	-2.127E+6	-29.87E+6	7.600E+6	155.9E+6
1139	C3		827	1.092E+6	-9.216E+6	-5.500E+6	55.45E+6
			848	1.092E+6	-9.216E+6	-5.500E+6	58.67E+6
1140	C3		827	-2.515E+6	-27.49E+6	4.855E+6	153.2E+6
			828	-2.515E+6	-27.49E+6	4.855E+6	177.8E+6
1142	C3		828	1.243E+6	-4.342E+6	-4.025E+6	31.22E+6
			849	1.243E+6	-4.342E+6	-4.025E+6	30.32E+6
1143	C3		828	-2.710E+6	-23.32E+6	2.878E+6	149.2E+6
			829	-2.710E+6	-23.32E+6	2.878E+6	185.5E+6
1145	C3		829	1.213E+6	-779500.	-3.082E+6	12.20E+6
			850	1.213E+6	-779500.	-3.082E+6	10.51E+6
1146	C3		829	-2.569E+6	-19.10E+6	2.109E+6	141.2E+6
			830	-2.569E+6	-19.10E+6	2.109E+6	188.3E+6
1148	C3		830	867300.	2.170E+6	-2.728E+6	14.44E+6
			851	867300.	2.170E+6	-2.728E+6	17.69E+6
1149	C3		830	-2.084E+6	-12.68E+6	2.221E+6	117.8E+6
			831	-2.084E+6	-12.68E+6	2.221E+6	175.8E+6
1151	C3		831	218100.	3.676E+6	-2.918E+6	20.88E+6
			852	218100.	3.676E+6	-2.918E+6	24.57E+6
1152	C3		831	-1.388E+6	-5.028E+6	2.904E+6	106.8E+6
			832	-1.388E+6	-5.028E+6	2.904E+6	149.4E+6
1154	C3		832	-680400.	5.359E+6	-3.581E+6	32.21E+6
			853	-680400.	5.359E+6	-3.581E+6	36.01E+6
1155	C3		832	-533200.	3.097E+6	3.972E+6	137.5E+6
			833	-533200.	3.097E+6	3.972E+6	112.5E+6
1157	C3		833	-1.757E+6	7.082E+6	-4.380E+6	45.11E+6
			854	-1.757E+6	7.082E+6	-4.380E+6	50.86E+6
1158	C3		833	365900.	11.72E+6	5.290E+6	166.5E+6
			834	365900.	11.72E+6	5.290E+6	101.7E+6
1160	C3		834	-2.838E+6	8.698E+6	-5.158E+6	56.43E+6
			855	-2.838E+6	8.698E+6	-5.158E+6	65.24E+6
1161	C3		834	1.020E+6	21.19E+6	6.671E+6	194.1E+6
			835	1.020E+6	21.19E+6	6.671E+6	132.1E+6
1163	C3		835	-3.513E+6	9.912E+6	-5.414E+6	61.24E+6
			856	-3.513E+6	9.912E+6	-5.414E+6	75.72E+6
1164	C3		835	721300.	32.67E+6	7.687E+6	218.7E+6
			836	721300.	32.67E+6	7.687E+6	158.6E+6
1166	C3		836	-3.154E+6	8.873E+6	-3.207E+6	43.51E+6
			857	-3.154E+6	8.873E+6	-3.207E+6	70.59E+6
1167	C3		836	-972000.	48.86E+6	6.910E+6	271.1E+6
			837	-972000.	48.86E+6	6.910E+6	188.5E+6
1169	C3		837	-209600.	-7.884E+6	10.29E+6	81.99E+6
			858	-209600.	-7.884E+6	10.29E+6	32.56E+6
1170	C3		837	-13.13E+6	116.7E+6	-2.606E+6	541.7E+6
			838	-13.13E+6	116.7E+6	-2.606E+6	730.5E+6
1172	C3		838	-7.082E+6	-64.90E+6	-5.836E+6	393.7E+6
			859	-7.082E+6	-64.90E+6	-5.836E+6	289.6E+6
1173	C3		838	7.377E+6	-65.05E+6	6.081E+6	396.2E+6
			839	7.377E+6	-65.05E+6	6.081E+6	293.7E+6
1175	C3		839	-5.261E+6	-17.03E+6	-5.333E+6	178.6E+6
			860	-5.261E+6	-17.03E+6	-5.333E+6	77.20E+6
1176	C3		839	-10.50E+6	15.97E+6	-8.374E+6	156.5E+6
			840	-10.50E+6	15.97E+6	-8.374E+6	131.7E+6
1178	C3		840	-2.685E+6	-19.40E+6	974700.	187.0E+6
			861	-2.685E+6	-19.40E+6	974700.	79.20E+6
1180	C3		841	839300.	-1.523E+6	2.343E+6	9.439E+6
			862	839300.	-1.523E+6	2.343E+6	15.56E+6
1181	C3		841	-3.023E+6	3.588E+6	-3.259E+6	38.01E+6
			842	-3.023E+6	3.588E+6	-3.259E+6	26.17E+6
1183	C3		842	2.771E+6	-3.570E+6	3.407E+6	25.14E+6
			863	2.771E+6	-3.570E+6	3.407E+6	36.68E+6
1184	C3		842	-5.114E+6	5.456E+6	-5.255E+6	57.15E+6
			843	-5.114E+6	5.456E+6	-5.255E+6	51.77E+6
1186	C3		843	4.709E+6	-5.743E+6	4.423E+6	39.60E+6
			864	4.709E+6	-5.743E+6	4.423E+6	59.74E+6
1187	C3		843	-6.769E+6	4.714E+6	-6.738E+6	59.76E+6
			844	-6.769E+6	4.714E+6	-6.738E+6	68.93E+6
1189	C3		844	5.127E+6	-7.716E+6	4.271E+6	45.44E+6
			865	5.127E+6	-7.716E+6	4.271E+6	75.37E+6
1190	C3		844	-5.832E+6	-785600.	-5.427E+6	60.29E+6
			845	-5.832E+6	-785600.	-5.427E+6	54.69E+6
1192	C3		845	3.858E+6	-8.515E+6	1.920E+6	40.59E+6
			866	3.858E+6	-8.515E+6	1.920E+6	76.91E+6
1193	C3		845	-3.950E+6	-10.54E+6	-96180.	90.63E+6
			846	-3.950E+6	-10.54E+6	-96180.	58.52E+6
1195	C3		846	1.524E+6	-8.199E+6	-1.285E+6	32.66E+6
			867	1.524E+6	-8.199E+6	-1.285E+6	62.00E+6
1196	C3		846	-590100.	-18.67E+6	3.974E+6	97.92E+6
			847	-590100.	-18.67E+6	3.974E+6	80.78E+6
1198	C3		847	-102900.	-7.188E+6	-3.051E+6	28.74E+6
			868	-102900.	-7.188E+6	-3.051E+6	47.90E+6
1199	C3		847	-349900.	-23.08E+6	4.813E+6	123.7E+6
			848	-349900.	-23.08E+6	4.813E+6	124.1E+6
1201	C3		848	-66280.	-5.181E+6	-3.214E+6	23.16E+6
			869	-66280.	-5.181E+6	-3.214E+6	33.85E+6
1202	C3		848	-807200.	-23.78E+6	3.790E+6	138.6E+6
			849	-807200.	-23.78E+6	3.790E+6	155.7E+6
1204	C3		849	314700.	-2.851E+6	-2.580E+6	15.09E+6
			870	314700.	-2.851E+6	-2.580E+6	19.24E+6
1205	C3		849	-1.098E+6	-21.94E+6	2.577E+6	142.7E+6
			850	-1.098E+6	-21.94E+6	2.577E+6	174.3E+6
1207	C3		850	501400.	-978300.	-1.914E+6	7.723E+6
			871	501400.	-978300.	-1.914E+6	8.255E+6
1208	C3		850	-1.045E+6	-18.42E+6	1.982E+6	136.7E+6
			851	-1.045E+6	-18.42E+6	1.982E+6	182.0E+6
1210	C3		851	363800.	117600.	-1.858E+6	4.248E+6
			872	363800.	117600.	-1.858E+6	5.352E+6
1211	C3		851	-610600.	-12.88E+6	2.132E+6	116.7E+6
			852	-610600.	-12.88E+6	2.132E+6	175.6E+6
1213	C3		852	-11500.	1.891E+6	-2.182E+6	9.553E+6
			873	-11500.	1.891E+6	-2.182E+6	13.50E+6
1214	C3		852	30140.	-4.472E+6	2.739E+6	111.5E+6
			853	30140.	-4.472E+6	2.739E+6	148.3E+6
1216	C3		853	-486100.	3.167E+6	-2.540E+6	15.22E+6
			874	-486100.	3.167E+6	-2.540E+6	23.17E+6
1217	C3		853	841300.	4.398E+6	3.669E+6	153.1E+6
			854	841300.	4.398E+6	3.669E+6	116.2E+6
1219	C3		854	-943500.	4.176E+6	-3.071E+6	20.60E+6
			875	-943500.	4.176E+6	-3.071E+6	31.80E+6
1220	C3		854	1.700E+6	13.97E+6	4.733E+6	190.3E+6
			855	1.700E+6	13.97E+6	4.733E+6	121.7E+6
1222	C3		855	-1.079E+6	4.881E+6	-3.448E+6	23.16E+6
			876	-1.079E+6	4.881E+6	-3.448E+6	37.47E+6
1223	C3		855	2.285E+6	24.45E+6	5.456E+6	221.2E+6
			856	2.285E+6	24.45E+6	5.456E+6	157.6E+6
1225	C3		856	-249000.	4.641E+6	-3.002E+6	19.79E+6
			877	-249000.	4.641E+6	-3.002E+6	33.68E+6
1226	C3		856	1.870E+6	36.44E+6	4.578E+6	242.9E+6
			857	1.870E+6	36.44E+6	4.578E+6	191.4E+6
1228	C3		857	2.707E+6	2.113E+6	-820900.	15.24E+6
			878	2.707E+6	2.113E+6	-820900.	27.58E+6
1229	C3		857	-724900.	49.55E+6	-751200.	251.0E+6
			858	-724900.	49.55E+6	-751200.	227.0E+6
1231	C3		858	8.052E+6	-363200.	533500.	40.82E+6
			879	8.052E+6	-363200.	533500.	39.40E+6
1232	C3		858	-8.747E+6	49.55E+6	-9.548E+6	229.8E+6
			859	-8.747E+6	49.55E+6	-9.548E+6	334.8E+6
1234	C3		859	10.40E+6	14.77E+6	8.312E+6	149.0E+6
			880	10.40E+6	14.77E+6	8.312E+6	124.9E+6
1235	C3		859	5.470E+6	-16.66E+6	5.481E+6	175.6E+6
			860	5.470E+6	-16.66E+6	5.481E+6	76.65E+6
1237	C3		860	6.816E+6	-13.91E+6	7.497E+6	99.91E+6
			881	6.816E+6	-13.91E+6	7.497E+6	108.2E+6
1238	C3		860	-6.971E+6	-13.22E+6	-7.615E+6	96.97E+6
			861	-6.971E+6	-13.22E+6	-7.615E+6	105.3E+6
1240	C3		861	8.158E+6	-28.11E+6	9.260E+6	183.5E+6
			882	8.158E+6	-28.11E+6	9.260E+6	185.0E+6
1242	C3		862	-878000.	1.810E+6	-2.287E+6	16.91E+6
			863	-878000.	1.810E+6	-2.287E+6	11.08E+6
1244	C3		863	-2.590E+6	1.573E+6	-3.872E+6	24.19E+6
			864	-2.590E+6	1.573E+6	-3.872E+6	23.25E+6
1246	C3		864	-3.776E+6	-835500.	-4.670E+6	35.86E+6
			865	-3.776E+6	-835500.	-4.670E+6	28.24E+6
1248	C3		865	-3.121E+6	-5.209E+6	-3.515E+6	51.93E+6
			866	-3.121E+6	-5.209E+6	-3.515E+6	36.35E+6
1250	C3		866	-1.957E+6	-10.34E+6	-622800.	63.87E+6
			867	-1.957E+6	-10.34E+6	-622800.	49.53E+6
1252	C3		867	393600.	-15.20E+6	2.233E+6	86.03E+6
			868	393600.	-15.20E+6	2.233E+6	71.60E+6
1254	C3		868	353000.	-19.05E+6	2.982E+6	110.9E+6
			869	353000.	-19.05E+6	2.982E+6	109.7E+6
1256	C3		869	-81300.	-20.90E+6	2.418E+6	127.6E+6
			870	-81300.	-20.90E+6	2.418E+6	140.8E+6
1258	C3		870	-351200.	-20.43E+6	1.640E+6	136.4E+6
			871	-351200.	-20.43E+6	1.640E+6	164.4E+6
1260	C3		871	-382300.	-18.03E+6	1.254E+6	133.3E+6
			872	-382300.	-18.03E+6	1.254E+6	178.3E+6
1262	C3		872	-129500.	-11.34E+6	1.732E+6	107.6E+6
			873	-129500.	-11.34E+6	1.732E+6	168.1E+6
1264	C3		873	208100.	-2.763E+6	2.311E+6	119.3E+6
			874	208100.	-2.763E+6	2.311E+6	140.8E+6
1266	C3		874	641100.	7.070E+6	3.203E+6	162.9E+6
			875	641100.	7.070E+6	3.203E+6	103.4E+6
1268	C3		875	1.085E+6	17.91E+6	4.245E+6	201.2E+6
			876	1.085E+6	17.91E+6	4.245E+6	130.5E+6
1270	C3		876	1.317E+6	29.45E+6	4.973E+6	229.9E+6
			877	1.317E+6	29.45E+6	4.973E+6	168.5E+6
1272	C3		877	862200.	40.85E+6	4.511E+6	239.7E+6
			878	862200.	40.85E+6	4.511E+6	199.9E+6
1274	C3		878	-1.894E+6	48.75E+6	2.307E+6	242.1E+6
			879	-1.894E+6	48.75E+6	2.307E+6	226.0E+6
1276	C3		879	-5.293E+6	60.32E+6	-2.609E+6	271.4E+6
			880	-5.293E+6	60.32E+6	-2.609E+6	411.2E+6
1278	C3		880	2.978E+6	-18.18E+6	-685300.	180.4E+6
			881	2.978E+6	-18.18E+6	-685300.	75.35E+6
1280	C3		881	-8.244E+6	-27.60E+6	-9.278E+6	181.5E+6
			882	-8.244E+6	-27.60E+6	-9.278E+6	182.5E+6
1282	C3		442	19.10E+6	-20.07E+6	40350.	191.5E+6
			883	19.10E+6	-20.07E+6	40350.	177.2E+6
1283	C3		883	-3.025E+6	19.60E+6	5.290E+6	113.0E+6
			904	-3.025E+6	19.60E+6	5.290E+6	104.2E+6
1284	C3		883	3.032E+6	20.33E+6	-5.376E+6	117.3E+6
			884	3.032E+6	20.33E+6	-5.376E+6	107.4E+6
1285	C3		443	12.03E+6	-23.27E+6	199900.	155.3E+6
			884	12.03E+6	-23.27E+6	199900.	153.8E+6
1286	C3		884	-3.614E+6	10.36E+6	5.039E+6	73.57E+6
			905	-3.614E+6	10.36E+6	5.039E+6	62.76E+6
1287	C3		884	1.668E+6	14.79E+6	-3.781E+6	54.00E+6
			885	1.668E+6	14.79E+6	-3.781E+6	129.3E+6
1288	C3		444	6.539E+6	8.984E+6	807500.	86.86E+6
			885	6.539E+6	8.984E+6	807500.	89.67E+6
1289	C3		885	-883300.	-432100.	3.157E+6	24.71E+6
			906	-883300.	-432100.	3.157E+6	28.79E+6
1290	C3		885	-717300.	-25.98E+6	-1.712E+6	167.0E+6
			886	-717300.	-25.98E+6	-1.712E+6	97.62E+6
1291	C3		445	2.944E+6	47.68E+6	-183900.	231.7E+6
			886	2.944E+6	47.68E+6	-183900.	226.4E+6
1292	C3		886	1.584E+6	2.121E+6	3.275E+6	20.22E+6
			907	1.584E+6	2.121E+6	3.275E+6	17.57E+6
1293	C3		886	-1.623E+6	-27.82E+6	-965200.	141.9E+6
			887	-1.623E+6	-27.82E+6	-965200.	138.2E+6
1294	C3		446	-999700.	48.26E+6	-1.036E+6	222.9E+6
			887	-999700.	48.26E+6	-1.036E+6	222.9E+6
1295	C3		887	2.210E+6	-611700.	1.397E+6	17.85E+6
			908	2.210E+6	-611700.	1.397E+6	11.13E+6
1296	C3		887	-1.497E+6	-23.36E+6	541700.	127.1E+6
			888	-1.497E+6	-23.36E+6	541700.	151.0E+6
1297	C3		447	-3.373E+6	39.52E+6	-1.102E+6	193.4E+6
			888	-3.373E+6	39.52E+6	-1.102E+6	192.6E+6
1298	C3		888	1.968E+6	-2.553E+6	-177900.	26.52E+6
			909	1.968E+6	-2.553E+6	-177900.	16.01E+6
1299	C3		888	-1.185E+6	-17.53E+6	1.049E+6	110.6E+6
			889	-1.185E+6	-17.53E+6	1.049E+6	145.6E+6
1300	C3		448	-3.839E+6	28.04E+6	-684300.	143.2E+6
			889	-3.839E+6	28.04E+6	-684300.	142.8E+6
1301	C3		889	1.575E+6	-2.885E+6	-670600.	26.10E+6
			910	1.575E+6	-2.885E+6	-670600.	16.47E+6
1302	C3		889	-885500.	-11.30E+6	804600.	90.80E+6
			890	-885500.	-11.30E+6	804600.	130.8E+6
1303	C3		449	-3.367E+6	16.43E+6	-201600.	88.89E+6
			890	-3.367E+6	16.43E+6	-201600.	88.75E+6
1304	C3		890	1.245E+6	-2.511E+6	-649800.	22.13E+6
			911	1.245E+6	-2.511E+6	-649800.	13.89E+6
1305	C3		890	-657100.	-5.463E+6	392000.	70.39E+6
			891	-657100.	-5.463E+6	392000.	111.5E+6
1306	C3		450	-2.447E+6	5.728E+6	188500.	37.08E+6
			891	-2.447E+6	5.728E+6	188500.	37.19E+6
1307	C3		891	1.035E+6	-1.826E+6	-583600.	17.02E+6
			912	1.035E+6	-1.826E+6	-583600.	10.25E+6
1308	C3		891	-525300.	-290900.	158300.	87.18E+6
			892	-525300.	-290900.	158300.	90.18E+6
1309	C3		451	-1.095E+6	-3.736E+6	421700.	22.93E+6
			892	-1.095E+6	-3.736E+6	421700.	22.54E+6
1310	C3		892	978000.	-774000.	-763500.	10.91E+6
			913	978000.	-774000.	-763500.	5.441E+6
1311	C3		892	-518100.	3.768E+6	270800.	102.3E+6
			893	-518100.	3.768E+6	270800.	71.15E+6
1312	C3		452	877400.	-13.38E+6	468000.	66.42E+6
			893	877400.	-13.38E+6	468000.	66.77E+6
1313	C3		893	1.091E+6	1.019E+6	-970000.	10.47E+6
			914	1.091E+6	1.019E+6	-970000.	8.945E+6
1314	C3		893	-611700.	9.509E+6	423700.	120.2E+6
			894	-611700.	9.509E+6	423700.	83.71E+6
1315	C3		453	2.866E+6	-22.97E+6	224700.	117.6E+6
			894	2.866E+6	-22.97E+6	224700.	117.7E+6
1316	C3		894	1.476E+6	2.157E+6	-1.614E+6	20.43E+6
			915	1.476E+6	2.157E+6	-1.614E+6	14.47E+6
1317	C3		894	-1.006E+6	14.00E+6	1.594E+6	126.6E+6
			895	-1.006E+6	14.00E+6	1.594E+6	99.21E+6
1318	C3		454	5.931E+6	-29.65E+6	-405300.	160.1E+6
			895	5.931E+6	-29.65E+6	-405300.	159.8E+6
1319	C3		895	2.193E+6	4.410E+6	-2.978E+6	38.41E+6
			916	2.193E+6	4.410E+6	-2.978E+6	26.03E+6
1320	C3		895	-1.648E+6	16.26E+6	3.211E+6	118.8E+6
			896	-1.648E+6	16.26E+6	3.211E+6	105.4E+6
1321	C3		455	9.809E+6	-31.49E+6	-1.361E+6	184.7E+6
			896	9.809E+6	-31.49E+6	-1.361E+6	183.7E+6
1322	C3		896	3.047E+6	7.357E+6	-4.298E+6	61.70E+6
			917	3.047E+6	7.357E+6	-4.298E+6	40.14E+6
1323	C3		896	-2.396E+6	15.57E+6	4.626E+6	96.10E+6
			897	-2.396E+6	15.57E+6	4.626E+6	99.06E+6
1324	C3		456	13.30E+6	-27.88E+6	-2.224E+6	183.4E+6
			897	13.30E+6	-27.88E+6	-2.224E+6	181.9E+6
1325	C3		897	3.456E+6	10.03E+6	-4.654E+6	82.19E+6
			918	3.456E+6	10.03E+6	-4.654E+6	49.56E+6
1326	C3		897	-2.579E+6	12.21E+6	4.467E+6	61.19E+6
			898	-2.579E+6	12.21E+6	4.467E+6	78.49E+6
1327	C3		457	14.81E+6	-20.00E+6	-1.739E+6	154.7E+6
			898	14.81E+6	-20.00E+6	-1.739E+6	153.5E+6
1328	C3		898	2.586E+6	11.26E+6	-2.856E+6	88.28E+6
			919	2.586E+6	11.26E+6	-2.856E+6	46.80E+6
1329	C3		898	-1.129E+6	7.614E+6	1.176E+6	34.68E+6
			899	-1.129E+6	7.614E+6	1.176E+6	56.45E+6
1330	C3		458	14.84E+6	-10.21E+6	545400.	111.6E+6
			899	14.84E+6	-10.21E+6	545400.	111.9E+6
1331	C3		899	930300.	11.13E+6	1.262E+6	81.91E+6
			920	930300.	11.13E+6	1.262E+6	39.36E+6
1332	C3		899	152000.	3.093E+6	-3.708E+6	19.18E+6
			900	152000.	3.093E+6	-3.708E+6	38.06E+6
1333	C3		459	14.13E+6	-972400.	2.630E+6	70.31E+6
			900	14.13E+6	-972400.	2.630E+6	71.96E+6
1334	C3		900	-884400.	10.78E+6	5.065E+6	77.22E+6
			921	-884400.	10.78E+6	5.065E+6	41.46E+6
1335	C3		900	1.623E+6	-1.029E+6	-6.409E+6	33.75E+6
			901	1.623E+6	-1.029E+6	-6.409E+6	24.80E+6
1336	C3		460	12.00E+6	5.432E+6	2.836E+6	80.33E+6
			901	12.00E+6	5.432E+6	2.836E+6	78.46E+6
1337	C3		901	-2.576E+6	9.064E+6	6.197E+6	71.07E+6
			922	-2.576E+6	9.064E+6	6.197E+6	44.56E+6
1338	C3		901	2.301E+6	-3.427E+6	-5.933E+6	36.84E+6
			902	2.301E+6	-3.427E+6	-5.933E+6	32.58E+6
1339	C3		461	8.662E+6	7.307E+6	1.676E+6	72.83E+6
			902	8.662E+6	7.307E+6	1.676E+6	71.72E+6
1340	C3		902	-3.409E+6	6.437E+6	5.256E+6	56.08E+6
			923	-3.409E+6	6.437E+6	5.256E+6	39.41E+6
1341	C3		902	2.407E+6	-3.197E+6	-3.704E+6	24.56E+6
			903	2.407E+6	-3.197E+6	-3.704E+6	31.93E+6
1342	C3		462	5.211E+6	4.901E+6	67030.	46.77E+6
			903	5.211E+6	4.901E+6	67030.	46.72E+6
1343	C3		903	-2.334E+6	3.470E+6	3.654E+6	33.24E+6
			924	-2.334E+6	3.470E+6	3.654E+6	25.37E+6
1344	C3		463	21.79E+6	-12.91E+6	-78910.	152.6E+6
			904	21.79E+6	-12.91E+6	-78910.	150.8E+6
1345	C3		904	-1.602E+6	13.31E+6	3.509E+6	47.99E+6
			925	-1.602E+6	13.31E+6	3.509E+6	119.2E+6
1346	C3		904	3.601E+6	11.16E+6	-4.903E+6	77.41E+6
			905	3.601E+6	11.16E+6	-4.903E+6	66.62E+6
1347	C3		464	16.37E+6	-17.33E+6	70280.	147.2E+6
			905	16.37E+6	-17.33E+6	70280.	148.0E+6
1348	C3		905	-1.611E+6	12.22E+6	-2.319E+6	42.86E+6
			926	-1.611E+6	12.22E+6	-2.319E+6	109.3E+6
1349	C3		905	1.655E+6	12.67E+6	2.162E+6	44.41E+6
			906	1.655E+6	12.67E+6	2.162E+6	113.8E+6
1350	C3		465	21.04E+6	14.93E+6	200900.	158.5E+6
			906	21.04E+6	14.93E+6	200900.	160.3E+6
1351	C3		906	432200.	39.73E+6	1.823E+6	157.1E+6
			927	432200.	39.73E+6	1.823E+6	234.2E+6
1352	C3		906	-1.571E+6	-28.26E+6	-8.391E+6	181.2E+6
			907	-1.571E+6	-28.26E+6	-8.391E+6	109.0E+6
1353	C3		466	4.666E+6	50.66E+6	213900.	248.9E+6
			907	4.666E+6	50.66E+6	213900.	247.5E+6
1354	C3		907	2.358E+6	6.527E+6	6.972E+6	26.56E+6
			928	2.358E+6	6.527E+6	6.972E+6	66.41E+6
1355	C3		907	-2.952E+6	-29.90E+6	-3.214E+6	156.3E+6
			908	-2.952E+6	-29.90E+6	-3.214E+6	163.3E+6
1356	C3		467	-5.263E+6	48.76E+6	-661500.	241.9E+6
			908	-5.263E+6	48.76E+6	-661500.	241.7E+6
1357	C3		908	3.061E+6	-4.579E+6	444800.	47.12E+6
			929	3.061E+6	-4.579E+6	444800.	25.28E+6
1358	C3		908	-2.913E+6	-22.40E+6	439700.	129.9E+6
			909	-2.913E+6	-22.40E+6	439700.	161.6E+6
1359	C3		468	-8.113E+6	37.23E+6	-635200.	201.7E+6
			909	-8.113E+6	37.23E+6	-635200.	201.2E+6
1360	C3		909	3.027E+6	-5.740E+6	-1.368E+6	50.39E+6
			930	3.027E+6	-5.740E+6	-1.368E+6	36.85E+6
1361	C3		909	-2.498E+6	-15.92E+6	1.274E+6	112.4E+6
			910	-2.498E+6	-15.92E+6	1.274E+6	149.8E+6
1362	C3		469	-8.034E+6	25.59E+6	-279100.	149.0E+6
			910	-8.034E+6	25.59E+6	-279100.	148.8E+6
1363	C3		910	2.798E+6	-5.265E+6	-1.442E+6	45.66E+6
			931	2.798E+6	-5.265E+6	-1.442E+6	35.76E+6
1364	C3		910	-2.103E+6	-10.20E+6	1.070E+6	95.03E+6
			911	-2.103E+6	-10.20E+6	1.070E+6	134.8E+6
1365	C3		470	-6.821E+6	14.91E+6	113900.	96.17E+6
			911	-6.821E+6	14.91E+6	113900.	96.25E+6
1366	C3		911	2.597E+6	-4.389E+6	-1.228E+6	39.19E+6
			932	2.597E+6	-4.389E+6	-1.228E+6	31.10E+6
1367	C3		911	-1.809E+6	-4.989E+6	681600.	76.64E+6
			912	-1.809E+6	-4.989E+6	681600.	117.3E+6
1368	C3		471	-5.054E+6	5.053E+6	439200.	45.14E+6
			912	-5.054E+6	5.053E+6	439200.	45.43E+6
1369	C3		912	2.485E+6	-3.281E+6	-1.059E+6	32.05E+6
			933	2.485E+6	-3.281E+6	-1.059E+6	24.91E+6
1370	C3		912	-1.652E+6	-198300.	461200.	95.52E+6
			913	-1.652E+6	-198300.	461200.	97.78E+6
1371	C3		472	-2.774E+6	-4.290E+6	659800.	32.41E+6
			913	-2.774E+6	-4.290E+6	659800.	31.98E+6
1372	C3		913	2.502E+6	-2.025E+6	-1.037E+6	24.78E+6
			934	2.502E+6	-2.025E+6	-1.037E+6	18.00E+6
1373	C3		913	-1.671E+6	4.399E+6	581600.	112.5E+6
			914	-1.671E+6	4.399E+6	581600.	76.40E+6
1374	C3		473	237500.	-14.04E+6	749800.	65.71E+6
			914	237500.	-14.04E+6	749800.	66.07E+6
1375	C3		914	2.694E+6	-810900.	-1.576E+6	19.01E+6
			935	2.694E+6	-810900.	-1.576E+6	14.23E+6
1376	C3		914	-1.885E+6	9.408E+6	1.220E+6	128.2E+6
			915	-1.885E+6	9.408E+6	1.220E+6	89.13E+6
1377	C3		474	4.473E+6	-24.99E+6	635500.	133.0E+6
			915	4.473E+6	-24.99E+6	635500.	133.4E+6
1378	C3		915	3.122E+6	2.424E+6	-2.740E+6	29.21E+6
			936	3.122E+6	2.424E+6	-2.740E+6	27.11E+6
1379	C3		915	-2.470E+6	15.85E+6	2.692E+6	144.6E+6
			916	-2.470E+6	15.85E+6	2.692E+6	111.7E+6
1380	C3		475	10.71E+6	-35.03E+6	230300.	203.4E+6
			916	10.71E+6	-35.03E+6	230300.	203.6E+6
1381	C3		916	3.793E+6	6.607E+6	-4.570E+6	56.38E+6
			937	3.793E+6	6.607E+6	-4.570E+6	51.64E+6
1382	C3		916	-3.373E+6	20.31E+6	4.902E+6	145.4E+6
			917	-3.373E+6	20.31E+6	4.902E+6	127.4E+6
1383	C3		476	19.38E+6	-40.54E+6	-475000.	264.3E+6
			917	19.38E+6	-40.54E+6	-475000.	264.0E+6
1384	C3		917	4.531E+6	12.65E+6	-7.058E+6	96.20E+6
			938	4.531E+6	12.65E+6	-7.058E+6	84.14E+6
1385	C3		917	-4.327E+6	21.69E+6	6.943E+6	127.5E+6
			918	-4.327E+6	21.69E+6	6.943E+6	130.5E+6
1386	C3		477	29.24E+6	-38.65E+6	-1.240E+6	298.1E+6
			918	29.24E+6	-38.65E+6	-1.240E+6	297.2E+6
1387	C3		918	4.784E+6	19.97E+6	-8.545E+6	143.7E+6
			939	4.784E+6	19.97E+6	-8.545E+6	115.2E+6
1388	C3		918	-4.408E+6	18.41E+6	6.804E+6	98.78E+6
			919	-4.408E+6	18.41E+6	6.804E+6	116.3E+6
1389	C3		478	36.83E+6	-27.45E+6	-1.192E+6	282.4E+6
			919	36.83E+6	-27.45E+6	-1.192E+6	281.7E+6
1390	C3		919	3.680E+6	26.26E+6	-6.236E+6	179.9E+6
			940	3.680E+6	26.26E+6	-6.236E+6	130.0E+6
1391	C3		919	-2.310E+6	10.07E+6	2.380E+6	52.84E+6
			920	-2.310E+6	10.07E+6	2.380E+6	92.40E+6
1392	C3		479	39.74E+6	-8.685E+6	35920.	215.7E+6
			920	39.74E+6	-8.685E+6	35920.	216.4E+6
1393	C3		920	1.637E+6	29.72E+6	2.175E+6	191.3E+6
			941	1.637E+6	29.72E+6	2.175E+6	134.7E+6
1394	C3		920	-268200.	-1.196E+6	-5.607E+6	49.78E+6
			921	-268200.	-1.196E+6	-5.607E+6	40.54E+6
1395	C3		480	34.29E+6	8.739E+6	1.138E+6	192.7E+6
			921	34.29E+6	8.739E+6	1.138E+6	192.0E+6
1396	C3		921	-549800.	24.50E+6	9.645E+6	154.7E+6
			942	-549800.	24.50E+6	9.645E+6	116.8E+6
1397	C3		921	2.005E+6	-8.209E+6	-8.997E+6	74.87E+6
			922	2.005E+6	-8.209E+6	-8.997E+6	57.60E+6
1398	C3		481	25.35E+6	16.82E+6	1.013E+6	186.5E+6
			922	25.35E+6	16.82E+6	1.013E+6	185.8E+6
1399	C3		922	-2.401E+6	17.07E+6	10.44E+6	114.5E+6
			943	-2.401E+6	17.07E+6	10.44E+6	95.59E+6
1400	C3		922	3.232E+6	-9.553E+6	-8.174E+6	67.87E+6
			923	3.232E+6	-9.553E+6	-8.174E+6	70.18E+6
1401	C3		482	15.87E+6	15.51E+6	89300.	139.0E+6
			923	15.87E+6	15.51E+6	89300.	139.0E+6
1402	C3		923	-3.355E+6	9.971E+6	8.376E+6	73.49E+6
			944	-3.355E+6	9.971E+6	8.376E+6	69.22E+6
1403	C3		923	3.656E+6	-6.420E+6	-5.400E+6	40.75E+6
			924	3.656E+6	-6.420E+6	-5.400E+6	56.81E+6
1404	C3		483	7.730E+6	8.638E+6	-1.519E+6	73.45E+6
			924	7.730E+6	8.638E+6	-1.519E+6	74.46E+6
1405	C3		924	-2.425E+6	3.716E+6	6.073E+6	34.87E+6
			945	-2.425E+6	3.716E+6	6.073E+6	39.06E+6
1406	C3		484	-8.597E+6	-7.535E+6	-720300.	87.68E+6
			925	-8.597E+6	-7.535E+6	-720300.	89.86E+6
1407	C3		925	641500.	-24.00E+6	2.115E+6	154.6E+6
			946	641500.	-24.00E+6	2.115E+6	90.62E+6
1408	C3		925	929500.	823300.	-3.293E+6	30.20E+6
			926	929500.	823300.	-3.293E+6	24.15E+6
1409	C3		485	-14.47E+6	-21.85E+6	-114200.	160.0E+6
			926	-14.47E+6	-21.85E+6	-114200.	161.9E+6
1410	C3		926	1.460E+6	-27.37E+6	8.778E+6	174.7E+6
			947	1.460E+6	-27.37E+6	8.778E+6	105.7E+6
1411	C3		926	-354000.	39.80E+6	-1.952E+6	156.3E+6
			927	-354000.	39.80E+6	-1.952E+6	236.4E+6
1412	C3		486	-18.25E+6	18.73E+6	12170.	228.7E+6
			927	-18.25E+6	18.73E+6	12170.	274.1E+6
1413	C3		927	4.522E+6	-60.50E+6	266700.	343.8E+6
			948	4.522E+6	-60.50E+6	266700.	254.0E+6
1414	C3		927	-4.578E+6	-61.16E+6	-171300.	348.6E+6
			928	-4.578E+6	-61.16E+6	-171300.	256.3E+6
1415	C3		487	-17.81E+6	73.50E+6	509200.	410.5E+6
			928	-17.81E+6	73.50E+6	509200.	402.2E+6
1416	C3		928	7.639E+6	-25.31E+6	-9.531E+6	175.6E+6
			949	7.639E+6	-25.31E+6	-9.531E+6	126.1E+6
1417	C3		928	-5.691E+6	-32.81E+6	2.015E+6	174.0E+6
			929	-5.691E+6	-32.81E+6	2.015E+6	208.7E+6
1418	C3		488	-15.83E+6	51.50E+6	-515000.	295.9E+6
			929	-15.83E+6	51.50E+6	-515000.	296.7E+6
1419	C3		929	7.630E+6	-11.88E+6	-4.615E+6	105.5E+6
			950	7.630E+6	-11.88E+6	-4.615E+6	84.70E+6
1420	C3		929	-5.267E+6	-21.00E+6	2.433E+6	137.4E+6
			930	-5.267E+6	-21.00E+6	2.433E+6	176.9E+6
1421	C3		489	-14.04E+6	35.72E+6	-355700.	219.2E+6
			930	-14.04E+6	35.72E+6	-355700.	218.8E+6
1422	C3		930	6.754E+6	-8.704E+6	-2.672E+6	83.64E+6
			951	6.754E+6	-8.704E+6	-2.672E+6	74.32E+6
1423	C3		930	-4.563E+6	-14.82E+6	2.009E+6	122.0E+6
			931	-4.563E+6	-14.82E+6	2.009E+6	159.4E+6
1424	C3		490	-12.09E+6	24.17E+6	22650.	159.4E+6
			931	-12.09E+6	24.17E+6	22650.	159.4E+6
1425	C3		931	5.869E+6	-7.128E+6	-1.945E+6	70.11E+6
			952	5.869E+6	-7.128E+6	-1.945E+6	64.84E+6
1426	C3		931	-3.965E+6	-9.611E+6	1.381E+6	105.3E+6
			932	-3.965E+6	-9.611E+6	1.381E+6	143.8E+6
1427	C3		491	-9.916E+6	14.34E+6	405300.	106.7E+6
			932	-9.916E+6	14.34E+6	405300.	106.9E+6
1428	C3		932	5.175E+6	-5.765E+6	-1.440E+6	58.60E+6
			953	5.175E+6	-5.765E+6	-1.440E+6	54.74E+6
1429	C3		932	-3.519E+6	-4.904E+6	828200.	87.63E+6
			933	-3.519E+6	-4.904E+6	828200.	127.3E+6
1430	C3		492	-7.520E+6	5.252E+6	718300.	56.72E+6
			933	-7.520E+6	5.252E+6	718300.	57.19E+6
1431	C3		933	4.687E+6	-4.420E+6	-1.115E+6	48.20E+6
			954	4.687E+6	-4.420E+6	-1.115E+6	44.40E+6
1432	C3		933	-3.242E+6	-420600.	512600.	104.7E+6
			934	-3.242E+6	-420600.	512600.	108.7E+6
1433	C3		493	-4.775E+6	-3.657E+6	940400.	38.50E+6
			934	-4.775E+6	-3.657E+6	940400.	37.78E+6
1434	C3		934	4.415E+6	-2.869E+6	-1.120E+6	38.00E+6
			955	4.415E+6	-2.869E+6	-1.120E+6	33.04E+6
1435	C3		934	-3.168E+6	3.712E+6	588400.	120.7E+6
			935	-3.168E+6	3.712E+6	588400.	90.25E+6
1436	C3		494	-1.306E+6	-14.28E+6	1.052E+6	72.90E+6
			935	-1.306E+6	-14.28E+6	1.052E+6	72.10E+6
1437	C3		935	4.372E+6	-523900.	-1.351E+6	25.69E+6
			956	4.372E+6	-523900.	-1.351E+6	20.04E+6
1438	C3		935	-3.323E+6	10.26E+6	1.290E+6	144.1E+6
			936	-3.323E+6	10.26E+6	1.290E+6	99.41E+6
1439	C3		495	3.700E+6	-27.72E+6	986200.	142.2E+6
			936	3.700E+6	-27.72E+6	986200.	142.8E+6
1440	C3		936	4.615E+6	1.428E+6	-2.252E+6	29.80E+6
			957	4.615E+6	1.428E+6	-2.252E+6	35.28E+6
1441	C3		936	-3.833E+6	17.92E+6	3.009E+6	165.8E+6
			937	-3.833E+6	17.92E+6	3.009E+6	124.5E+6
1442	C3		496	11.60E+6	-42.22E+6	649600.	239.2E+6
			937	11.60E+6	-42.22E+6	649600.	239.6E+6
1443	C3		937	5.160E+6	5.568E+6	-4.541E+6	55.46E+6
			958	5.160E+6	5.568E+6	-4.541E+6	65.65E+6
1444	C3		937	-4.660E+6	25.62E+6	6.168E+6	179.3E+6
			938	-4.660E+6	25.62E+6	6.168E+6	150.6E+6
1445	C3		497	24.70E+6	-54.43E+6	-21760.	348.0E+6
			938	24.70E+6	-54.43E+6	-21760.	348.0E+6
1446	C3		938	5.844E+6	13.71E+6	-8.820E+6	105.5E+6
			959	5.844E+6	13.71E+6	-8.820E+6	118.5E+6
1447	C3		938	-5.577E+6	31.22E+6	10.34E+6	172.3E+6
			939	-5.577E+6	31.22E+6	10.34E+6	170.7E+6
1448	C3		498	44.53E+6	-57.74E+6	-913400.	447.1E+6
			939	44.53E+6	-57.74E+6	-913400.	446.6E+6
1449	C3		939	6.091E+6	28.23E+6	-13.74E+6	191.7E+6
			960	6.091E+6	28.23E+6	-13.74E+6	193.9E+6
1450	C3		939	-5.675E+6	29.76E+6	11.81E+6	167.6E+6
			940	-5.675E+6	29.76E+6	11.81E+6	192.6E+6
1451	C3		499	65.62E+6	-43.44E+6	-1.146E+6	477.1E+6
			940	65.62E+6	-43.44E+6	-1.146E+6	476.1E+6
1452	C3		940	4.776E+6	45.07E+6	-10.24E+6	284.6E+6
			961	4.776E+6	45.07E+6	-10.24E+6	259.2E+6
1453	C3		940	-3.184E+6	18.06E+6	5.125E+6	96.55E+6
			941	-3.184E+6	18.06E+6	5.125E+6	173.5E+6
1454	C3		500	77.53E+6	-6.523E+6	-278500.	382.1E+6
			941	77.53E+6	-6.523E+6	-278500.	376.8E+6
1455	C3		941	2.392E+6	62.03E+6	3.739E+6	333.6E+6
			962	2.392E+6	62.03E+6	3.739E+6	352.9E+6
1456	C3		941	-973800.	-11.62E+6	-10.16E+6	140.7E+6
			942	-973800.	-11.62E+6	-10.16E+6	62.76E+6
1457	C3		501	58.21E+6	26.41E+6	464900.	372.2E+6
			942	58.21E+6	26.41E+6	464900.	371.7E+6
1458	C3		942	15750.	38.98E+6	14.87E+6	229.2E+6
			963	15750.	38.98E+6	14.87E+6	225.4E+6
1459	C3		942	1.589E+6	-19.18E+6	-13.77E+6	137.9E+6
			943	1.589E+6	-19.18E+6	-13.77E+6	119.9E+6
1460	C3		502	36.07E+6	33.97E+6	131200.	306.8E+6
			943	36.07E+6	33.97E+6	131200.	306.7E+6
1461	C3		943	-1.986E+6	21.94E+6	14.98E+6	137.9E+6
			964	-1.986E+6	21.94E+6	14.98E+6	146.9E+6
1462	C3		943	2.864E+6	-17.33E+6	-11.16E+6	103.0E+6
			944	2.864E+6	-17.33E+6	-11.16E+6	116.4E+6
1463	C3		503	17.77E+6	26.07E+6	-829400.	193.1E+6
			944	17.77E+6	26.07E+6	-829400.	193.7E+6
1464	C3		944	-3.048E+6	9.072E+6	10.30E+6	66.21E+6
			965	-3.048E+6	9.072E+6	10.30E+6	83.46E+6
1465	C3		944	3.498E+6	-9.765E+6	-6.841E+6	51.81E+6
			945	3.498E+6	-9.765E+6	-6.841E+6	78.93E+6
1466	C3		504	5.155E+6	12.82E+6	-2.706E+6	81.00E+6
			945	5.155E+6	12.82E+6	-2.706E+6	82.78E+6
1467	C3		945	-2.397E+6	616100.	6.987E+6	32.84E+6
			966	-2.397E+6	616100.	6.987E+6	37.97E+6
1468	C3		505	-44.54E+6	-3.324E+6	59580.	218.9E+6
			946	-44.54E+6	-3.324E+6	59580.	213.6E+6
1469	C3		946	1.470E+6	-26.02E+6	1.334E+6	132.3E+6
			967	1.470E+6	-26.02E+6	1.334E+6	129.8E+6
1470	C3		946	-1.407E+6	2.537E+6	-3.737E+6	21.35E+6
			947	-1.407E+6	2.537E+6	-3.737E+6	19.53E+6
1471	C3		506	-48.51E+6	-4.836E+6	-215900.	239.7E+6
			947	-48.51E+6	-4.836E+6	-215900.	238.7E+6
1472	C3		947	2.714E+6	-28.48E+6	3.582E+6	147.9E+6
			968	2.714E+6	-28.48E+6	3.582E+6	156.7E+6
1473	C3		947	-2.164E+6	6.438E+6	-7.273E+6	25.92E+6
			948	-2.164E+6	6.438E+6	-7.273E+6	66.41E+6
1474	C3		507	-71.57E+6	18.53E+6	-520200.	405.0E+6
			948	-71.57E+6	18.53E+6	-520200.	396.2E+6
1475	C3		948	5.489E+6	-31.54E+6	-1.809E+6	166.0E+6
			969	5.489E+6	-31.54E+6	-1.809E+6	202.6E+6
1476	C3		948	-7.557E+6	-25.92E+6	9.480E+6	179.0E+6
			949	-7.557E+6	-25.92E+6	9.480E+6	127.4E+6
1477	C3		508	-42.52E+6	44.25E+6	-39570.	379.2E+6
			949	-42.52E+6	44.25E+6	-39570.	377.0E+6
1478	C3		949	8.161E+6	-23.69E+6	-7.923E+6	157.3E+6
			970	8.161E+6	-23.69E+6	-7.923E+6	167.0E+6
1479	C3		949	-8.246E+6	-24.81E+6	8.006E+6	164.5E+6
			950	-8.246E+6	-24.81E+6	8.006E+6	172.7E+6
1480	C3		509	-25.70E+6	40.35E+6	-425000.	288.5E+6
			950	-25.70E+6	40.35E+6	-425000.	288.4E+6
1481	C3		950	8.110E+6	-15.02E+6	-6.029E+6	122.1E+6
			971	8.110E+6	-15.02E+6	-6.029E+6	124.0E+6
1482	C3		950	-7.279E+6	-18.20E+6	4.566E+6	137.1E+6
			951	-7.279E+6	-18.20E+6	4.566E+6	166.1E+6
1483	C3		510	-18.72E+6	30.60E+6	-177100.	216.0E+6
			951	-18.72E+6	30.60E+6	-177100.	215.8E+6
1484	C3		951	7.116E+6	-10.46E+6	-3.706E+6	95.69E+6
			972	7.116E+6	-10.46E+6	-3.706E+6	98.53E+6
1485	C3		951	-6.177E+6	-13.13E+6	2.693E+6	120.8E+6
			952	-6.177E+6	-13.13E+6	2.693E+6	154.2E+6
1486	C3		511	-14.88E+6	21.64E+6	199500.	160.0E+6
			952	-14.88E+6	21.64E+6	199500.	160.2E+6
1487	C3		952	6.114E+6	-8.067E+6	-2.324E+6	77.70E+6
			973	6.114E+6	-8.067E+6	-2.324E+6	81.51E+6
1488	C3		952	-5.281E+6	-8.857E+6	1.542E+6	106.5E+6
			953	-5.281E+6	-8.857E+6	1.542E+6	142.1E+6
1489	C3		512	-11.95E+6	13.51E+6	531300.	111.7E+6
			953	-11.95E+6	13.51E+6	531300.	112.1E+6
1490	C3		953	5.305E+6	-6.428E+6	-1.422E+6	63.84E+6
			974	5.305E+6	-6.428E+6	-1.422E+6	67.49E+6
1491	C3		953	-4.596E+6	-4.862E+6	737000.	91.20E+6
			954	-4.596E+6	-4.862E+6	737000.	128.9E+6
1492	C3		513	-9.335E+6	5.576E+6	780900.	66.10E+6
			954	-9.335E+6	5.576E+6	780900.	66.62E+6
1493	C3		954	4.694E+6	-5.104E+6	-773700.	52.36E+6
			975	4.694E+6	-5.104E+6	-773700.	54.80E+6
1494	C3		954	-4.116E+6	-843300.	224600.	106.1E+6
			955	-4.116E+6	-843300.	224600.	113.4E+6
1495	C3		514	-6.773E+6	-2.986E+6	944900.	44.48E+6
			955	-6.773E+6	-2.986E+6	944900.	43.85E+6
1496	C3		955	4.286E+6	-4.037E+6	-279100.	42.91E+6
			976	4.286E+6	-4.037E+6	-279100.	42.97E+6
1497	C3		955	-3.858E+6	3.668E+6	70960.	124.6E+6
			956	-3.858E+6	3.668E+6	70960.	94.34E+6
1498	C3		515	-3.911E+6	-13.82E+6	1.013E+6	79.95E+6
			956	-3.911E+6	-13.82E+6	1.013E+6	79.16E+6
1499	C3		956	4.111E+6	-3.452E+6	-243200.	36.52E+6
			977	4.111E+6	-3.452E+6	-243200.	32.29E+6
1500	C3		956	-3.849E+6	9.756E+6	448000.	147.9E+6
			957	-3.849E+6	9.756E+6	448000.	98.53E+6
1501	C3		516	-94350.	-29.12E+6	936400.	135.0E+6
			957	-94350.	-29.12E+6	936400.	134.3E+6
1502	C3		957	4.205E+6	-1.488E+6	-629500.	36.10E+6
			978	4.205E+6	-1.488E+6	-629500.	25.69E+6
1503	C3		957	-4.182E+6	19.39E+6	1.758E+6	181.0E+6
			958	-4.182E+6	19.39E+6	1.758E+6	128.4E+6
1504	C3		517	6.038E+6	-49.11E+6	637400.	247.8E+6
			958	6.038E+6	-49.11E+6	637400.	248.2E+6
1505	C3		958	4.584E+6	717900.	-1.666E+6	46.46E+6
			979	4.584E+6	717900.	-1.666E+6	53.55E+6
1506	C3		958	-4.839E+6	30.87E+6	4.998E+6	213.1E+6
			959	-4.839E+6	30.87E+6	4.998E+6	164.2E+6
1507	C3		518	18.24E+6	-72.47E+6	24190.	401.7E+6
			959	18.24E+6	-72.47E+6	24190.	402.0E+6
1508	C3		959	5.169E+6	5.936E+6	-5.497E+6	60.94E+6
			980	5.169E+6	5.936E+6	-5.497E+6	107.8E+6
1509	C3		959	-5.683E+6	45.45E+6	12.00E+6	251.8E+6
			960	-5.683E+6	45.45E+6	12.00E+6	218.7E+6
1510	C3		519	45.29E+6	-90.30E+6	-985900.	594.7E+6
			960	45.29E+6	-90.30E+6	-985900.	592.6E+6
1511	C3		960	5.545E+6	25.93E+6	-14.48E+6	154.9E+6
			981	5.545E+6	25.93E+6	-14.48E+6	248.2E+6
1512	C3		960	-5.977E+6	54.55E+6	18.21E+6	296.8E+6
			961	-5.977E+6	54.55E+6	18.21E+6	333.8E+6
1513	C3		520	86.42E+6	-70.72E+6	-1.699E+6	691.7E+6
			961	86.42E+6	-70.72E+6	-1.699E+6	683.0E+6
1514	C3		961	4.239E+6	70.64E+6	-5.032E+6	340.9E+6
			982	4.239E+6	70.64E+6	-5.032E+6	499.0E+6
1515	C3		961	-3.402E+6	29.81E+6	-2.570E+6	145.8E+6
			962	-3.402E+6	29.81E+6	-2.570E+6	292.8E+6
1516	C3		521	71.23E+6	-24750.	-898800.	364.4E+6
			962	71.23E+6	-24750.	-898800.	380.2E+6
1517	C3		962	3.122E+6	23.45E+6	5.132E+6	148.2E+6
			983	3.122E+6	23.45E+6	5.132E+6	260.3E+6
1518	C3		962	-2.353E+6	-30.65E+6	-5.397E+6	285.3E+6
			963	-2.353E+6	-30.65E+6	-5.397E+6	153.7E+6
1519	C3		522	69.55E+6	55.18E+6	352000.	546.6E+6
			963	69.55E+6	55.18E+6	352000.	543.3E+6
1520	C3		963	1.872E+6	52.48E+6	9.312E+6	247.5E+6
			984	1.872E+6	52.48E+6	9.312E+6	387.7E+6
1521	C3		963	393900.	-39.17E+6	-18.31E+6	245.5E+6
			964	393900.	-39.17E+6	-18.31E+6	224.4E+6
1522	C3		523	32.79E+6	60.10E+6	-182000.	407.5E+6
			964	32.79E+6	60.10E+6	-182000.	406.8E+6
1523	C3		964	-295500.	17.41E+6	14.96E+6	92.61E+6
			985	-295500.	17.41E+6	14.96E+6	171.3E+6
1524	C3		964	1.645E+6	-27.84E+6	-12.34E+6	141.0E+6
			965	1.645E+6	-27.84E+6	-12.34E+6	176.1E+6
1525	C3		524	8.814E+6	38.69E+6	-1.067E+6	211.9E+6
			965	8.814E+6	38.69E+6	-1.067E+6	212.8E+6
1526	C3		965	-1.483E+6	705700.	7.661E+6	51.40E+6
			986	-1.483E+6	705700.	7.661E+6	58.28E+6
1527	C3		965	2.563E+6	-12.70E+6	-6.264E+6	55.54E+6
			966	2.563E+6	-12.70E+6	-6.264E+6	96.52E+6
1528	C3		525	-3.671E+6	16.59E+6	-2.670E+6	93.70E+6
			966	-3.671E+6	16.59E+6	-2.670E+6	91.92E+6
1529	C3		966	-1.588E+6	-5.436E+6	4.687E+6	55.14E+6
			987	-1.588E+6	-5.436E+6	4.687E+6	33.35E+6
1530	C3		526	-44.91E+6	1.021E+6	933100.	207.2E+6
			967	-44.91E+6	1.021E+6	933100.	208.4E+6
1531	C3		967	1.269E+6	-21.60E+6	-267400.	116.3E+6
			988	1.269E+6	-21.60E+6	-267400.	140.6E+6
1532	C3		967	-1.903E+6	-613700.	-1.699E+6	16.68E+6
			968	-1.903E+6	-613700.	-1.699E+6	10.34E+6
1533	C3		527	-45.84E+6	5.523E+6	650900.	229.4E+6
			968	-45.84E+6	5.523E+6	650900.	230.0E+6
1534	C3		968	2.538E+6	-20.77E+6	-171700.	119.2E+6
			989	2.538E+6	-20.77E+6	-171700.	151.6E+6
1535	C3		968	-2.734E+6	-4.804E+6	-710300.	47.39E+6
			969	-2.734E+6	-4.804E+6	-710300.	24.83E+6
1536	C3		528	-48.69E+6	16.65E+6	485900.	286.4E+6
			969	-48.69E+6	16.65E+6	485900.	287.9E+6
1537	C3		969	4.895E+6	-19.38E+6	-2.232E+6	126.4E+6
			990	4.895E+6	-19.38E+6	-2.232E+6	166.8E+6
1538	C3		969	-7.379E+6	-12.46E+6	4.505E+6	108.3E+6
			970	-7.379E+6	-12.46E+6	4.505E+6	86.24E+6
1539	C3		529	-37.73E+6	27.27E+6	321500.	283.4E+6
			970	-37.73E+6	27.27E+6	321500.	283.8E+6
1540	C3		970	6.997E+6	-16.66E+6	-4.437E+6	126.4E+6
			991	6.997E+6	-16.66E+6	-4.437E+6	156.2E+6
1541	C3		970	-8.019E+6	-16.02E+6	6.044E+6	128.2E+6
			971	-8.019E+6	-16.02E+6	6.044E+6	128.8E+6
1542	C3		530	-26.88E+6	29.25E+6	-79240.	244.9E+6
			971	-26.88E+6	29.25E+6	-79240.	244.9E+6
1543	C3		971	6.805E+6	-13.14E+6	-4.404E+6	111.7E+6
			992	6.805E+6	-13.14E+6	-4.404E+6	130.7E+6
1544	C3		971	-6.926E+6	-14.55E+6	4.487E+6	121.4E+6
			972	-6.926E+6	-14.55E+6	4.487E+6	139.5E+6
1545	C3		531	-20.06E+6	25.35E+6	59290.	198.5E+6
			972	-20.06E+6	25.35E+6	59290.	198.6E+6
1546	C3		972	5.708E+6	-10.13E+6	-3.201E+6	92.07E+6
			993	5.708E+6	-10.13E+6	-3.201E+6	106.0E+6
1547	C3		972	-5.699E+6	-11.55E+6	2.722E+6	110.2E+6
			973	-5.699E+6	-11.55E+6	2.722E+6	136.8E+6
1548	C3		532	-15.75E+6	19.49E+6	327700.	154.3E+6
			973	-15.75E+6	19.49E+6	327700.	154.5E+6
1549	C3		973	4.587E+6	-7.971E+6	-1.955E+6	74.29E+6
			994	4.587E+6	-7.971E+6	-1.955E+6	85.84E+6
1550	C3		973	-4.687E+6	-8.307E+6	1.377E+6	98.65E+6
			974	-4.687E+6	-8.307E+6	1.377E+6	129.8E+6
1551	C3		533	-12.67E+6	13.09E+6	544500.	113.0E+6
			974	-12.67E+6	13.09E+6	544500.	113.4E+6
1552	C3		974	3.624E+6	-6.437E+6	-908900.	59.61E+6
			995	3.624E+6	-6.437E+6	-908900.	69.29E+6
1553	C3		974	-3.868E+6	-4.966E+6	374800.	85.60E+6
			975	-3.868E+6	-4.966E+6	374800.	120.0E+6
1554	C3		534	-10.32E+6	6.242E+6	682800.	73.30E+6
			975	-10.32E+6	6.242E+6	682800.	73.75E+6
1555	C3		975	2.796E+6	-5.368E+6	-41970.	47.70E+6
			996	2.796E+6	-5.368E+6	-41970.	55.10E+6
1556	C3		975	-3.213E+6	-1.357E+6	-371100.	95.68E+6
			976	-3.213E+6	-1.357E+6	-371100.	107.0E+6
1557	C3		535	-8.523E+6	-1.570E+6	751100.	46.51E+6
			976	-8.523E+6	-1.570E+6	751100.	45.93E+6
1558	C3		976	2.087E+6	-4.606E+6	614000.	37.93E+6
			997	2.087E+6	-4.606E+6	614000.	42.07E+6
1559	C3		976	-2.730E+6	2.501E+6	-878100.	113.2E+6
			977	-2.730E+6	2.501E+6	-878100.	92.28E+6
1560	C3		536	-7.150E+6	-12.66E+6	752300.	89.39E+6
			977	-7.150E+6	-12.66E+6	752300.	88.77E+6
1561	C3		977	1.497E+6	-3.800E+6	1.341E+6	28.51E+6
			998	1.497E+6	-3.800E+6	1.341E+6	27.89E+6
1562	C3		977	-2.440E+6	9.688E+6	-1.117E+6	142.7E+6
			978	-2.440E+6	9.688E+6	-1.117E+6	90.82E+6
1563	C3		537	-6.081E+6	-29.23E+6	667000.	159.0E+6
			978	-6.081E+6	-29.23E+6	667000.	158.5E+6
1564	C3		978	1.060E+6	-4.689E+6	2.025E+6	34.03E+6
			999	1.060E+6	-4.689E+6	2.025E+6	23.42E+6
1565	C3		978	-2.406E+6	19.56E+6	-1.005E+6	178.2E+6
			979	-2.406E+6	19.56E+6	-1.005E+6	119.4E+6
1566	C3		538	-5.166E+6	-52.32E+6	471600.	259.2E+6
			979	-5.166E+6	-52.32E+6	471600.	258.7E+6
1567	C3		979	798200.	-5.979E+6	2.724E+6	57.38E+6
			1000	798200.	-5.979E+6	2.724E+6	32.03E+6
1568	C3		979	-2.618E+6	32.76E+6	-354200.	222.7E+6
			980	-2.618E+6	32.76E+6	-354200.	153.0E+6
1569	C3		539	-3.805E+6	-86.01E+6	154600.	403.9E+6
			980	-3.805E+6	-86.01E+6	154600.	405.3E+6
1570	C3		980	695700.	-9.799E+6	5.074E+6	107.0E+6
			1001	695700.	-9.799E+6	5.074E+6	51.74E+6
1571	C3		980	-2.987E+6	56.76E+6	1.388E+6	309.1E+6
			981	-2.987E+6	56.76E+6	1.388E+6	237.0E+6
1572	C3		540	282300.	-133.4E+6	-330800.	616.9E+6
			981	282300.	-133.4E+6	-330800.	602.1E+6
1573	C3		981	946900.	-25.17E+6	9.788E+6	236.9E+6
			1002	946900.	-25.17E+6	9.788E+6	117.8E+6
1574	C3		981	-3.461E+6	104.5E+6	5.259E+6	500.7E+6
			982	-3.461E+6	104.5E+6	5.259E+6	589.8E+6
1575	C3		541	15.01E+6	-78.73E+6	-1.553E+6	508.8E+6
			982	15.01E+6	-78.73E+6	-1.553E+6	534.0E+6
1576	C3		982	2.437E+6	-52.31E+6	-7.528E+6	443.5E+6
			1003	2.437E+6	-52.31E+6	-7.528E+6	234.4E+6
1577	C3		982	-3.436E+6	-8.889E+6	8.904E+6	252.3E+6
			983	-3.436E+6	-8.889E+6	8.904E+6	178.0E+6
1578	C3		542	28.75E+6	5.249E+6	-347900.	154.9E+6
			983	28.75E+6	5.249E+6	-347900.	149.4E+6
1579	C3		983	3.639E+6	28.27E+6	-2.186E+6	134.0E+6
			1004	3.639E+6	28.27E+6	-2.186E+6	362.1E+6
1580	C3		983	-3.497E+6	-4.682E+6	-11.37E+6	209.1E+6
			984	-3.497E+6	-4.682E+6	-11.37E+6	168.8E+6
1581	C3		543	12.72E+6	65.78E+6	1.099E+6	417.8E+6
			984	12.72E+6	65.78E+6	1.099E+6	425.6E+6
1582	C3		984	4.060E+6	-37.05E+6	9.095E+6	358.9E+6
			1005	4.060E+6	-37.05E+6	9.095E+6	166.1E+6
1583	C3		984	-2.469E+6	-76.70E+6	-7.826E+6	447.5E+6
			985	-2.469E+6	-76.70E+6	-7.826E+6	393.2E+6
1584	C3		544	-6.171E+6	92.81E+6	-193400.	452.2E+6
			985	-6.171E+6	92.81E+6	-193400.	443.9E+6
1585	C3		985	3.834E+6	-23.19E+6	-4.215E+6	212.5E+6
			1006	3.834E+6	-23.19E+6	-4.215E+6	111.9E+6
1586	C3		985	-1.257E+6	-36.35E+6	-4.063E+6	164.4E+6
			986	-1.257E+6	-36.35E+6	-4.063E+6	227.5E+6
1587	C3		545	-13.12E+6	48.50E+6	-584300.	272.9E+6
			986	-13.12E+6	48.50E+6	-584300.	273.6E+6
1588	C3		986	2.532E+6	-14.09E+6	-1.283E+6	115.2E+6
			1007	2.532E+6	-14.09E+6	-1.283E+6	63.02E+6
1589	C3		986	19200.	-13.79E+6	-2.246E+6	46.20E+6
			987	19200.	-13.79E+6	-2.246E+6	95.15E+6
1590	C3		546	-17.17E+6	18.70E+6	-1.348E+6	159.1E+6
			987	-17.17E+6	18.70E+6	-1.348E+6	158.1E+6
1591	C3		987	1.122E+6	-12.65E+6	281000.	81.80E+6
			1008	1.122E+6	-12.65E+6	281000.	49.55E+6
1592	C3		547	-36.02E+6	3.500E+6	990300.	177.4E+6
			988	-36.02E+6	3.500E+6	990300.	178.0E+6
1593	C3		988	916700.	-15.67E+6	-809000.	98.28E+6
			1009	916700.	-15.67E+6	-809000.	132.9E+6
1594	C3		988	-1.567E+6	-2.644E+6	-32280.	25.26E+6
			989	-1.567E+6	-2.644E+6	-32280.	14.82E+6
1595	C3		548	-33.89E+6	8.470E+6	619300.	187.7E+6
			989	-33.89E+6	8.470E+6	619300.	188.1E+6
1596	C3		989	2.048E+6	-14.12E+6	-1.057E+6	99.71E+6
			1010	2.048E+6	-14.12E+6	-1.057E+6	136.9E+6
1597	C3		989	-2.587E+6	-5.992E+6	1.158E+6	50.16E+6
			990	-2.587E+6	-5.992E+6	1.158E+6	36.12E+6
1598	C3		549	-32.31E+6	14.80E+6	320100.	206.9E+6
			990	-32.31E+6	14.80E+6	320100.	207.1E+6
1599	C3		990	4.093E+6	-12.95E+6	-1.833E+6	108.5E+6
			1011	4.093E+6	-12.95E+6	-1.833E+6	145.8E+6
1600	C3		990	-6.359E+6	-9.205E+6	2.567E+6	85.26E+6
			991	-6.359E+6	-9.205E+6	2.567E+6	75.02E+6
1601	C3		550	-27.25E+6	20.05E+6	57440.	206.8E+6
			991	-27.25E+6	20.05E+6	57440.	206.8E+6
1602	C3		991	5.785E+6	-11.26E+6	-2.563E+6	107.1E+6
			1012	5.785E+6	-11.26E+6	-2.563E+6	140.4E+6
1603	C3		991	-6.876E+6	-11.30E+6	3.710E+6	100.2E+6
			992	-6.876E+6	-11.30E+6	3.710E+6	101.9E+6
1604	C3		551	-22.23E+6	22.06E+6	-262800.	193.7E+6
			992	-22.23E+6	22.06E+6	-262800.	193.5E+6
1605	C3		992	5.476E+6	-9.776E+6	-2.621E+6	97.44E+6
			1013	5.476E+6	-9.776E+6	-2.621E+6	124.1E+6
1606	C3		992	-5.696E+6	-11.33E+6	3.279E+6	99.96E+6
			993	-5.696E+6	-11.33E+6	3.279E+6	112.9E+6
1607	C3		552	-18.01E+6	20.70E+6	-140300.	169.4E+6
			993	-18.01E+6	20.70E+6	-140300.	169.3E+6
1608	C3		993	4.311E+6	-8.291E+6	-1.980E+6	82.82E+6
			1014	4.311E+6	-8.291E+6	-1.980E+6	103.9E+6
1609	C3		993	-4.394E+6	-9.840E+6	2.087E+6	93.56E+6
			994	-4.394E+6	-9.840E+6	2.087E+6	114.4E+6
1610	C3		553	-14.61E+6	17.16E+6	95630.	139.3E+6
			994	-14.61E+6	17.16E+6	95630.	139.3E+6
1611	C3		994	3.146E+6	-6.873E+6	-1.016E+6	67.43E+6
			1015	3.146E+6	-6.873E+6	-1.016E+6	84.51E+6
1612	C3		994	-3.312E+6	-7.605E+6	855600.	84.65E+6
			995	-3.312E+6	-7.605E+6	855600.	110.7E+6
1613	C3		554	-12.05E+6	12.41E+6	252500.	107.5E+6
			995	-12.05E+6	12.41E+6	252500.	107.6E+6
1614	C3		995	2.132E+6	-5.760E+6	15430.	53.88E+6
			1016	2.132E+6	-5.760E+6	15430.	67.74E+6
1615	C3		995	-2.391E+6	-4.949E+6	-222500.	73.36E+6
			996	-2.391E+6	-4.949E+6	-222500.	103.5E+6
1616	C3		555	-10.38E+6	6.726E+6	311900.	75.71E+6
			996	-10.38E+6	6.726E+6	311900.	75.92E+6
1617	C3		996	1.220E+6	-5.123E+6	1.041E+6	43.46E+6
			1017	1.220E+6	-5.123E+6	1.041E+6	54.08E+6
1618	C3		996	-1.584E+6	-1.859E+6	-1.160E+6	77.28E+6
			997	-1.584E+6	-1.859E+6	-1.160E+6	92.53E+6
1619	C3		556	-9.693E+6	-354200.	296400.	46.64E+6
			997	-9.693E+6	-354200.	296400.	46.44E+6
1620	C3		997	383200.	-5.189E+6	2.148E+6	37.07E+6
			1018	383200.	-5.189E+6	2.148E+6	43.99E+6
1621	C3		997	-883100.	2.068E+6	-2.017E+6	94.32E+6
			998	-883100.	2.068E+6	-2.017E+6	76.71E+6
1622	C3		557	-10.18E+6	-10.42E+6	223600.	90.99E+6
			998	-10.18E+6	-10.42E+6	223600.	90.72E+6
1623	C3		998	-376300.	-6.511E+6	3.170E+6	42.64E+6
			1019	-376300.	-6.511E+6	3.170E+6	39.70E+6
1624	C3		998	-296200.	7.938E+6	-2.901E+6	118.1E+6
			999	-296200.	7.938E+6	-2.901E+6	69.12E+6
1625	C3		558	-12.32E+6	-25.80E+6	103700.	169.1E+6
			999	-12.32E+6	-25.80E+6	103700.	169.0E+6
1626	C3		999	-1.052E+6	-7.848E+6	4.494E+6	49.00E+6
			1020	-1.052E+6	-7.848E+6	4.494E+6	38.48E+6
1627	C3		999	140200.	17.81E+6	-4.092E+6	153.8E+6
			1000	140200.	17.81E+6	-4.092E+6	101.5E+6
1628	C3		559	-17.38E+6	-47.19E+6	-32090.	285.3E+6
			1000	-17.38E+6	-47.19E+6	-32090.	285.3E+6
1629	C3		1000	-1.641E+6	-11.81E+6	6.817E+6	75.23E+6
			1021	-1.641E+6	-11.81E+6	6.817E+6	62.32E+6
1630	C3		1000	440600.	30.27E+6	-6.436E+6	192.6E+6
			1001	440600.	30.27E+6	-6.436E+6	140.0E+6
1631	C3		560	-28.70E+6	-74.70E+6	-97190.	454.8E+6
			1001	-28.70E+6	-74.70E+6	-97190.	455.0E+6
1632	C3		1001	-2.100E+6	-20.31E+6	10.93E+6	134.0E+6
			1022	-2.100E+6	-20.31E+6	10.93E+6	111.1E+6
1633	C3		1001	645700.	47.52E+6	-11.61E+6	253.4E+6
			1002	645700.	47.52E+6	-11.61E+6	201.9E+6
1634	C3		561	-54.14E+6	-103.9E+6	-57500.	691.4E+6
			1002	-54.14E+6	-103.9E+6	-57500.	690.2E+6
1635	C3		1002	-2.114E+6	-37.23E+6	16.99E+6	230.8E+6
			1023	-2.114E+6	-37.23E+6	16.99E+6	202.3E+6
1636	C3		1002	350700.	66.81E+6	-15.50E+6	353.1E+6
			1003	350700.	66.81E+6	-15.50E+6	362.9E+6
1637	C3		562	-93.61E+6	-108.3E+6	-957700.	892.3E+6
			1003	-93.61E+6	-108.3E+6	-957700.	877.3E+6
1638	C3		1003	-577700.	-68.01E+6	19.42E+6	391.0E+6
			1024	-577700.	-68.01E+6	19.42E+6	347.5E+6
1639	C3		1003	-2.432E+6	75.88E+6	3.989E+6	339.5E+6
			1004	-2.432E+6	75.88E+6	3.989E+6	553.1E+6
1640	C3		563	-75.58E+6	-462300.	-12810.	447.1E+6
			1004	-75.58E+6	-462300.	-12810.	506.8E+6
1641	C3		1004	3.984E+6	-122.0E+6	-896100.	696.7E+6
			1025	3.984E+6	-122.0E+6	-896100.	564.1E+6
1642	C3		1004	-5.342E+6	-76.95E+6	-816000.	562.1E+6
			1005	-5.342E+6	-76.95E+6	-816000.	361.1E+6
1643	C3		564	-83.96E+6	94.74E+6	1.039E+6	789.6E+6
			1005	-83.96E+6	94.74E+6	1.039E+6	776.8E+6
1644	C3		1005	7.691E+6	-65.98E+6	-18.27E+6	399.5E+6
			1026	7.691E+6	-65.98E+6	-18.27E+6	349.2E+6
1645	C3		1005	-6.344E+6	-52.89E+6	10.50E+6	310.6E+6
			1006	-6.344E+6	-52.89E+6	10.50E+6	329.7E+6
1646	C3		565	-54.89E+6	75.85E+6	228600.	570.5E+6
			1006	-54.89E+6	75.85E+6	228600.	570.1E+6
1647	C3		1006	7.422E+6	-37.84E+6	-12.60E+6	236.3E+6
			1027	7.422E+6	-37.84E+6	-12.60E+6	204.0E+6
1648	C3		1006	-4.746E+6	-30.97E+6	6.737E+6	154.7E+6
			1007	-4.746E+6	-30.97E+6	6.737E+6	212.2E+6
1649	C3		566	-37.92E+6	43.01E+6	349000.	353.8E+6
			1007	-37.92E+6	43.01E+6	349000.	354.1E+6
1650	C3		1007	5.640E+6	-25.23E+6	-6.817E+6	156.1E+6
			1028	5.640E+6	-25.23E+6	-6.817E+6	124.8E+6
1651	C3		1007	-3.114E+6	-13.16E+6	2.632E+6	54.51E+6
			1008	-3.114E+6	-13.16E+6	2.632E+6	103.4E+6
1652	C3		567	-31.39E+6	17.24E+6	670400.	214.4E+6
			1008	-31.39E+6	17.24E+6	670400.	214.8E+6
1653	C3		1008	3.133E+6	-19.15E+6	-3.831E+6	120.7E+6
			1029	3.133E+6	-19.15E+6	-3.831E+6	99.89E+6
1654	C3		568	-24.40E+6	3.931E+6	576200.	126.8E+6
			1009	-24.40E+6	3.931E+6	576200.	127.2E+6
1655	C3		1009	625500.	-9.380E+6	-589600.	77.25E+6
			1030	625500.	-9.380E+6	-589600.	116.1E+6
1656	C3		1009	-1.143E+6	-2.951E+6	489600.	24.52E+6
			1010	-1.143E+6	-2.951E+6	489600.	15.10E+6
1657	C3		569	-21.98E+6	8.290E+6	270200.	133.7E+6
			1010	-21.98E+6	8.290E+6	270200.	133.9E+6
1658	C3		1010	1.650E+6	-8.289E+6	-883000.	80.71E+6
			1031	1.650E+6	-8.289E+6	-883000.	119.4E+6
1659	C3		1010	-2.305E+6	-5.445E+6	1.262E+6	44.68E+6
			1011	-2.305E+6	-5.445E+6	1.262E+6	34.49E+6
1660	C3		570	-20.34E+6	12.63E+6	-47900.	144.8E+6
			1011	-20.34E+6	12.63E+6	-47900.	144.8E+6
1661	C3		1011	3.478E+6	-7.573E+6	-1.236E+6	89.87E+6
			1032	3.478E+6	-7.573E+6	-1.236E+6	127.3E+6
1662	C3		1011	-5.402E+6	-7.479E+6	1.854E+6	70.42E+6
			1012	-5.402E+6	-7.479E+6	1.854E+6	64.42E+6
1663	C3		571	-17.72E+6	15.82E+6	-316300.	147.1E+6
			1012	-17.72E+6	15.82E+6	-316300.	146.9E+6
1664	C3		1012	4.875E+6	-6.736E+6	-1.442E+6	90.45E+6
			1033	4.875E+6	-6.736E+6	-1.442E+6	124.9E+6
1665	C3		1012	-5.812E+6	-8.665E+6	2.346E+6	80.41E+6
			1013	-5.812E+6	-8.665E+6	2.346E+6	83.13E+6
1666	C3		572	-15.73E+6	17.21E+6	-553400.	144.5E+6
			1013	-15.73E+6	17.21E+6	-553400.	144.2E+6
1667	C3		1013	4.484E+6	-6.244E+6	-1.311E+6	83.43E+6
			1034	4.484E+6	-6.244E+6	-1.311E+6	113.6E+6
1668	C3		1013	-4.558E+6	-8.864E+6	2.066E+6	80.08E+6
			1014	-4.558E+6	-8.864E+6	2.066E+6	90.59E+6
1669	C3		573	-13.82E+6	16.65E+6	-426900.	133.8E+6
			1014	-13.82E+6	16.65E+6	-426900.	133.6E+6
1670	C3		1014	3.285E+6	-5.744E+6	-792200.	71.74E+6
			1035	3.285E+6	-5.744E+6	-792200.	97.24E+6
1671	C3		1014	-3.227E+6	-8.077E+6	1.171E+6	75.70E+6
			1015	-3.227E+6	-8.077E+6	1.171E+6	92.21E+6
1672	C3		574	-11.79E+6	14.42E+6	-202900.	115.3E+6
			1015	-11.79E+6	14.42E+6	-202900.	115.1E+6
1673	C3		1015	2.140E+6	-5.059E+6	15550.	58.81E+6
			1036	2.140E+6	-5.059E+6	15550.	80.00E+6
1674	C3		1015	-2.151E+6	-6.558E+6	94130.	68.85E+6
			1016	-2.151E+6	-6.558E+6	94130.	90.12E+6
1675	C3		575	-10.17E+6	10.92E+6	-83040.	92.93E+6
			1016	-10.17E+6	10.92E+6	-83040.	92.88E+6
1676	C3		1016	1.176E+6	-4.494E+6	977800.	47.64E+6
			1037	1.176E+6	-4.494E+6	977800.	64.92E+6
1677	C3		1016	-1.235E+6	-4.492E+6	-971000.	59.43E+6
			1017	-1.235E+6	-4.492E+6	-971000.	84.60E+6
1678	C3		576	-9.426E+6	6.315E+6	-77270.	69.86E+6
			1017	-9.426E+6	6.315E+6	-77270.	69.79E+6
1679	C3		1017	324700.	-4.373E+6	2.010E+6	39.74E+6
			1038	324700.	-4.373E+6	2.010E+6	53.28E+6
1680	C3		1017	-412700.	-1.897E+6	-2.007E+6	59.37E+6
			1018	-412700.	-1.897E+6	-2.007E+6	74.99E+6
1681	C3		577	-9.928E+6	428300.	-152100.	47.87E+6
			1018	-9.928E+6	428300.	-152100.	47.86E+6
1682	C3		1018	-454400.	-4.830E+6	3.042E+6	40.59E+6
			1039	-454400.	-4.830E+6	3.042E+6	47.86E+6
1683	C3		1018	331500.	1.034E+6	-3.083E+6	74.51E+6
			1019	331500.	1.034E+6	-3.083E+6	66.48E+6
1684	C3		578	-12.11E+6	-8.608E+6	-280500.	92.75E+6
			1019	-12.11E+6	-8.608E+6	-280500.	92.82E+6
1685	C3		1019	-1.171E+6	-5.770E+6	4.408E+6	45.61E+6
			1040	-1.171E+6	-5.770E+6	4.408E+6	48.23E+6
1686	C3		1019	993100.	7.132E+6	-4.361E+6	103.4E+6
			1020	993100.	7.132E+6	-4.361E+6	64.16E+6
1687	C3		579	-16.78E+6	-22.11E+6	-436700.	171.5E+6
			1020	-16.78E+6	-22.11E+6	-436700.	171.8E+6
1688	C3		1020	-1.798E+6	-9.285E+6	6.114E+6	62.25E+6
			1041	-1.798E+6	-9.285E+6	6.114E+6	59.82E+6
1689	C3		1020	1.548E+6	15.23E+6	-6.177E+6	133.2E+6
			1021	1.548E+6	15.23E+6	-6.177E+6	93.68E+6
1690	C3		580	-25.57E+6	-38.84E+6	-569400.	282.6E+6
			1021	-25.57E+6	-38.84E+6	-569400.	283.0E+6
1691	C3		1021	-2.297E+6	-14.56E+6	8.274E+6	86.01E+6
			1042	-2.297E+6	-14.56E+6	8.274E+6	79.03E+6
1692	C3		1021	1.997E+6	24.64E+6	-9.130E+6	158.6E+6
			1022	1.997E+6	24.64E+6	-9.130E+6	126.3E+6
1693	C3		581	-41.55E+6	-56.49E+6	-591100.	428.4E+6
			1022	-41.55E+6	-56.49E+6	-591100.	428.8E+6
1694	C3		1022	-2.597E+6	-23.14E+6	11.34E+6	122.7E+6
			1043	-2.597E+6	-23.14E+6	11.34E+6	122.7E+6
1695	C3		1022	2.307E+6	34.13E+6	-13.63E+6	186.5E+6
			1023	2.307E+6	34.13E+6	-13.63E+6	159.4E+6
1696	C3		582	-68.86E+6	-69.26E+6	-557200.	601.6E+6
			1023	-68.86E+6	-69.26E+6	-557200.	602.2E+6
1697	C3		1023	-2.365E+6	-36.24E+6	14.58E+6	174.3E+6
			1044	-2.365E+6	-36.24E+6	14.58E+6	192.4E+6
1698	C3		1023	1.962E+6	40.08E+6	-17.84E+6	221.1E+6
			1024	1.962E+6	40.08E+6	-17.84E+6	235.0E+6
1699	C3		583	-109.5E+6	-62.44E+6	-1.253E+6	751.3E+6
			1024	-109.5E+6	-62.44E+6	-1.253E+6	750.4E+6
1700	C3		1024	-590400.	-53.75E+6	14.49E+6	238.6E+6
			1045	-590400.	-53.75E+6	14.49E+6	278.0E+6
1701	C3		1024	-922200.	32.90E+6	-14.13E+6	153.5E+6
			1025	-922200.	32.90E+6	-14.13E+6	279.0E+6
1702	C3		584	-155.3E+6	-4.947E+6	-407100.	736.2E+6
			1025	-155.3E+6	-4.947E+6	-407100.	718.9E+6
1703	C3		1025	4.001E+6	-67.54E+6	463000.	285.6E+6
			1046	4.001E+6	-67.54E+6	463000.	358.5E+6
1704	C3		1025	-7.338E+6	-28.12E+6	14.50E+6	279.7E+6
			1026	-7.338E+6	-28.12E+6	14.50E+6	167.9E+6
1705	C3		585	-109.4E+6	49.02E+6	671200.	694.7E+6
			1026	-109.4E+6	49.02E+6	671200.	693.2E+6
1706	C3		1026	7.800E+6	-55.59E+6	-12.65E+6	278.2E+6
			1047	7.800E+6	-55.59E+6	-12.65E+6	303.1E+6
1707	C3		1026	-8.396E+6	-31.61E+6	15.16E+6	223.6E+6
			1027	-8.396E+6	-31.61E+6	15.16E+6	219.0E+6
1708	C3		586	-73.75E+6	49.54E+6	378200.	538.2E+6
			1027	-73.75E+6	49.54E+6	378200.	538.7E+6
1709	C3		1027	7.682E+6	-40.11E+6	-11.27E+6	229.3E+6
			1048	7.682E+6	-40.11E+6	-11.27E+6	231.5E+6
1710	C3		1027	-6.544E+6	-22.44E+6	9.582E+6	133.1E+6
			1028	-6.544E+6	-22.44E+6	9.582E+6	166.1E+6
1711	C3		587	-53.18E+6	32.53E+6	753400.	375.3E+6
			1028	-53.18E+6	32.53E+6	753400.	375.8E+6
1712	C3		1028	5.830E+6	-29.90E+6	-7.424E+6	186.5E+6
			1049	5.830E+6	-29.90E+6	-7.424E+6	184.1E+6
1713	C3		1028	-4.555E+6	-11.11E+6	4.957E+6	56.80E+6
			1029	-4.555E+6	-11.11E+6	4.957E+6	94.67E+6
1714	C3		588	-42.36E+6	14.58E+6	1.748E+6	251.9E+6
			1029	-42.36E+6	14.58E+6	1.748E+6	253.1E+6
1715	C3		1029	3.063E+6	-23.60E+6	-4.651E+6	150.9E+6
			1050	3.063E+6	-23.60E+6	-4.651E+6	149.7E+6
1716	C3		589	-12.70E+6	3.402E+6	122500.	72.17E+6
			1030	-12.70E+6	3.402E+6	122500.	72.25E+6
1717	C3		1030	425500.	-3.512E+6	-197600.	65.13E+6
			1051	425500.	-3.512E+6	-197600.	95.13E+6
1718	C3		1030	-830800.	-2.535E+6	471200.	20.34E+6
			1031	-830800.	-2.535E+6	471200.	12.45E+6
1719	C3		590	-11.13E+6	6.941E+6	-92490.	80.02E+6
			1031	-11.13E+6	6.941E+6	-92490.	79.96E+6
1720	C3		1031	1.385E+6	-3.016E+6	-507500.	73.98E+6
			1052	1.385E+6	-3.016E+6	-507500.	99.78E+6
1721	C3		1031	-2.097E+6	-4.475E+6	1.049E+6	37.55E+6
			1032	-2.097E+6	-4.475E+6	1.049E+6	29.38E+6
1722	C3		591	-10.26E+6	10.19E+6	-392300.	90.26E+6
			1032	-10.26E+6	10.19E+6	-392300.	89.99E+6
1723	C3		1032	3.050E+6	-2.772E+6	-705800.	84.65E+6
			1053	3.050E+6	-2.772E+6	-705800.	108.1E+6
1724	C3		1032	-4.691E+6	-5.944E+6	1.354E+6	57.72E+6
			1033	-4.691E+6	-5.944E+6	1.354E+6	53.35E+6
1725	C3		592	-9.200E+6	12.46E+6	-614700.	95.74E+6
			1033	-9.200E+6	12.46E+6	-614700.	95.32E+6
1726	C3		1033	4.223E+6	-2.579E+6	-682700.	87.12E+6
			1054	4.223E+6	-2.579E+6	-682700.	108.7E+6
1727	C3		1033	-5.014E+6	-6.767E+6	1.475E+6	64.96E+6
			1034	-5.014E+6	-6.767E+6	1.475E+6	67.60E+6
1728	C3		593	-8.849E+6	13.53E+6	-756600.	98.99E+6
			1034	-8.849E+6	13.53E+6	-756600.	98.48E+6
1729	C3		1034	3.748E+6	-2.695E+6	-386400.	78.36E+6
			1055	3.748E+6	-2.695E+6	-386400.	100.8E+6
1730	C3		1034	-3.673E+6	-6.982E+6	1.086E+6	63.50E+6
			1035	-3.673E+6	-6.982E+6	1.086E+6	72.06E+6
1731	C3		594	-8.531E+6	13.34E+6	-592200.	96.76E+6
			1035	-8.531E+6	13.34E+6	-592200.	96.35E+6
1732	C3		1035	2.506E+6	-2.836E+6	172700.	63.72E+6
			1056	2.506E+6	-2.836E+6	172700.	87.23E+6
1733	C3		1035	-2.329E+6	-6.557E+6	239500.	59.87E+6
			1036	-2.329E+6	-6.557E+6	239500.	72.89E+6
1734	C3		595	-7.743E+6	11.96E+6	-344800.	87.19E+6
			1036	-7.743E+6	11.96E+6	-344800.	86.95E+6
1735	C3		1036	1.392E+6	-2.724E+6	938600.	49.72E+6
			1057	1.392E+6	-2.724E+6	938600.	72.28E+6
1736	C3		1036	-1.309E+6	-5.558E+6	-756300.	54.99E+6
			1037	-1.309E+6	-5.558E+6	-756300.	71.82E+6
1737	C3		596	-7.133E+6	9.475E+6	-223600.	73.62E+6
			1037	-7.133E+6	9.475E+6	-223600.	73.47E+6
1738	C3		1037	516400.	-2.675E+6	1.834E+6	39.18E+6
			1058	516400.	-2.675E+6	1.834E+6	59.40E+6
1739	C3		1037	-474400.	-4.044E+6	-1.769E+6	47.86E+6
			1038	-474400.	-4.044E+6	-1.769E+6	68.10E+6
1740	C3		597	-7.383E+6	5.932E+6	-218800.	59.31E+6
			1038	-7.383E+6	5.932E+6	-218800.	59.16E+6
1741	C3		1038	-220000.	-3.059E+6	2.808E+6	36.52E+6
			1059	-220000.	-3.059E+6	2.808E+6	51.90E+6
1742	C3		1038	261200.	-2.024E+6	-2.795E+6	46.53E+6
			1039	261200.	-2.024E+6	-2.795E+6	63.03E+6
1743	C3		598	-8.956E+6	1.074E+6	-280800.	46.13E+6
			1039	-8.956E+6	1.074E+6	-280800.	45.95E+6
1744	C3		1039	-864900.	-4.229E+6	3.922E+6	41.96E+6
			1060	-864900.	-4.229E+6	3.922E+6	53.46E+6
1745	C3		1039	915800.	718600.	-3.893E+6	63.06E+6
			1040	915800.	718600.	-3.893E+6	57.62E+6
1746	C3		599	-12.33E+6	-6.096E+6	-372200.	81.79E+6
			1040	-12.33E+6	-6.096E+6	-372200.	81.92E+6
1747	C3		1040	-1.413E+6	-6.790E+6	4.971E+6	54.05E+6
			1061	-1.413E+6	-6.790E+6	4.971E+6	62.38E+6
1748	C3		1040	1.484E+6	4.899E+6	-5.188E+6	83.38E+6
			1041	1.484E+6	4.899E+6	-5.188E+6	52.41E+6
1749	C3		600	-18.23E+6	-16.67E+6	-456800.	154.2E+6
			1041	-18.23E+6	-16.67E+6	-456800.	154.4E+6
1750	C3		1041	-1.849E+6	-9.419E+6	6.205E+6	66.58E+6
			1062	-1.849E+6	-9.419E+6	6.205E+6	73.12E+6
1751	C3		1041	1.940E+6	11.74E+6	-6.855E+6	108.2E+6
			1042	1.940E+6	11.74E+6	-6.855E+6	78.92E+6
1752	C3		601	-27.79E+6	-28.84E+6	-481600.	248.4E+6
			1042	-27.79E+6	-28.84E+6	-481600.	248.7E+6
1753	C3		1042	-2.143E+6	-14.15E+6	7.823E+6	88.22E+6
			1063	-2.143E+6	-14.15E+6	7.823E+6	95.26E+6
1754	C3		1042	2.266E+6	17.99E+6	-9.014E+6	120.7E+6
			1043	2.266E+6	17.99E+6	-9.014E+6	101.9E+6
1755	C3		602	-42.36E+6	-38.82E+6	-390900.	354.9E+6
			1043	-42.36E+6	-38.82E+6	-390900.	355.2E+6
1756	C3		1043	-2.199E+6	-20.86E+6	9.330E+6	117.3E+6
			1064	-2.199E+6	-20.86E+6	9.330E+6	129.7E+6
1757	C3		1043	2.378E+6	22.37E+6	-11.28E+6	120.3E+6
			1044	2.378E+6	22.37E+6	-11.28E+6	116.6E+6
1758	C3		603	-62.55E+6	-42.06E+6	-314800.	457.3E+6
			1044	-62.55E+6	-42.06E+6	-314800.	457.5E+6
1759	C3		1044	-1.726E+6	-29.05E+6	9.890E+6	149.7E+6
			1065	-1.726E+6	-29.05E+6	9.890E+6	175.9E+6
1760	C3		1044	1.779E+6	21.84E+6	-11.80E+6	118.6E+6
			1045	1.779E+6	21.84E+6	-11.80E+6	135.5E+6
1761	C3		604	-86.42E+6	-31.97E+6	-864200.	520.4E+6
			1045	-86.42E+6	-31.97E+6	-864200.	521.2E+6
1762	C3		1045	82090.	-36.93E+6	7.550E+6	174.0E+6
			1066	82090.	-36.93E+6	7.550E+6	228.7E+6
1763	C3		1045	-1.133E+6	11.83E+6	-6.343E+6	62.52E+6
			1046	-1.133E+6	11.83E+6	-6.343E+6	118.7E+6
1764	C3		605	-104.4E+6	-6.081E+6	-708900.	495.1E+6
			1046	-104.4E+6	-6.081E+6	-708900.	497.4E+6
1765	C3		1046	4.088E+6	-41.24E+6	901000.	204.9E+6
			1067	4.088E+6	-41.24E+6	901000.	279.7E+6
1766	C3		1046	-7.383E+6	-5.719E+6	5.607E+6	121.0E+6
			1047	-7.383E+6	-5.719E+6	5.607E+6	74.17E+6
1767	C3		606	-90.77E+6	18.71E+6	-301700.	485.9E+6
			1047	-90.77E+6	18.71E+6	-301700.	485.9E+6
1768	C3		1047	7.287E+6	-39.81E+6	-5.402E+6	225.8E+6
			1068	7.287E+6	-39.81E+6	-5.402E+6	280.9E+6
1769	C3		1047	-8.517E+6	-14.66E+6	9.871E+6	135.7E+6
			1048	-8.517E+6	-14.66E+6	9.871E+6	121.5E+6
1770	C3		607	-71.63E+6	26.29E+6	-388000.	431.4E+6
			1048	-71.63E+6	26.29E+6	-388000.	431.2E+6
1771	C3		1048	7.041E+6	-34.51E+6	-6.940E+6	215.7E+6
			1069	7.041E+6	-34.51E+6	-6.940E+6	249.9E+6
1772	C3		1048	-6.605E+6	-13.60E+6	8.076E+6	96.33E+6
			1049	-6.605E+6	-13.60E+6	8.076E+6	110.9E+6
1773	C3		608	-57.01E+6	20.61E+6	156900.	342.5E+6
			1049	-57.01E+6	20.61E+6	156900.	342.6E+6
1774	C3		1049	5.073E+6	-29.02E+6	-5.565E+6	191.6E+6
			1070	5.073E+6	-29.02E+6	-5.565E+6	215.1E+6
1775	C3		1049	-4.326E+6	-7.805E+6	4.851E+6	45.88E+6
			1050	-4.326E+6	-7.805E+6	4.851E+6	70.86E+6
1776	C3		609	-47.60E+6	10.29E+6	1.209E+6	257.9E+6
			1050	-47.60E+6	10.29E+6	1.209E+6	258.8E+6
1777	C3		1050	2.410E+6	-24.74E+6	-3.607E+6	165.1E+6
			1071	2.410E+6	-24.74E+6	-3.607E+6	184.8E+6
1778	C3		610	-1.965E+6	2.506E+6	-222400.	20.93E+6
			1051	-1.965E+6	2.506E+6	-222400.	20.78E+6
1779	C3		1051	319000.	1.688E+6	67080.	85.74E+6
			1072	319000.	1.688E+6	67080.	72.18E+6
1780	C3		1051	-652800.	-1.867E+6	364200.	15.38E+6
			1052	-652800.	-1.867E+6	364200.	9.081E+6
1781	C3		611	-1.266E+6	5.146E+6	-370100.	29.83E+6
			1052	-1.266E+6	5.146E+6	-370100.	29.60E+6
1782	C3		1052	1.256E+6	1.778E+6	-263300.	92.48E+6
			1073	1.256E+6	1.778E+6	-263300.	78.21E+6
1783	C3		1052	-1.993E+6	-3.328E+6	849800.	30.09E+6
			1053	-1.993E+6	-3.328E+6	849800.	23.18E+6
1784	C3		612	-1.108E+6	7.627E+6	-644600.	40.51E+6
			1053	-1.108E+6	7.627E+6	-644600.	40.09E+6
1785	C3		1053	2.796E+6	1.705E+6	-385900.	101.2E+6
			1074	2.796E+6	1.705E+6	-385900.	87.44E+6
1786	C3		1053	-4.205E+6	-4.472E+6	1.004E+6	46.50E+6
			1054	-4.205E+6	-4.472E+6	1.004E+6	42.52E+6
1787	C3		613	-1.111E+6	9.491E+6	-807200.	49.02E+6
			1054	-1.111E+6	9.491E+6	-807200.	48.49E+6
1788	C3		1054	3.790E+6	1.488E+6	-209400.	102.6E+6
			1075	3.790E+6	1.488E+6	-209400.	90.34E+6
1789	C3		1054	-4.448E+6	-5.206E+6	867200.	52.27E+6
			1055	-4.448E+6	-5.206E+6	867200.	53.94E+6
1790	C3		614	-1.738E+6	10.60E+6	-854800.	56.54E+6
			1055	-1.738E+6	10.60E+6	-854800.	55.98E+6
1791	C3		1055	3.213E+6	995800.	254000.	93.46E+6
			1076	3.213E+6	995800.	254000.	85.11E+6
1792	C3		1055	-2.984E+6	-5.564E+6	310400.	50.10E+6
			1056	-2.984E+6	-5.564E+6	310400.	56.47E+6
1793	C3		615	-2.495E+6	10.90E+6	-630500.	60.77E+6
			1056	-2.495E+6	10.90E+6	-630500.	60.36E+6
1794	C3		1056	1.897E+6	413800.	931600.	77.44E+6
			1077	1.897E+6	413800.	931600.	73.75E+6
1795	C3		1056	-1.614E+6	-5.480E+6	-619300.	47.42E+6
			1057	-1.614E+6	-5.480E+6	-619300.	57.09E+6
1796	C3		616	-2.683E+6	10.32E+6	-338200.	58.76E+6
			1057	-2.683E+6	10.32E+6	-338200.	58.53E+6
1797	C3		1057	810700.	90680.	1.735E+6	61.78E+6
			1078	810700.	90680.	1.735E+6	60.73E+6
1798	C3		1057	-666600.	-4.962E+6	-1.601E+6	44.69E+6
			1058	-666600.	-4.962E+6	-1.601E+6	57.37E+6
1799	C3		617	-3.013E+6	8.830E+6	-203800.	53.39E+6
			1058	-3.013E+6	8.830E+6	-203800.	53.26E+6
1800	C3		1058	39780.	-317200.	2.583E+6	47.79E+6
			1079	39780.	-317200.	2.583E+6	50.19E+6
1801	C3		1058	49460.	-3.988E+6	-2.539E+6	41.55E+6
			1059	49460.	-3.988E+6	-2.539E+6	55.97E+6
1802	C3		618	-4.189E+6	6.421E+6	-188600.	47.62E+6
			1059	-4.189E+6	6.421E+6	-188600.	47.49E+6
1803	C3		1059	-546800.	-1.149E+6	3.412E+6	39.49E+6
			1080	-546800.	-1.149E+6	3.412E+6	48.80E+6
1804	C3		1059	643700.	-2.553E+6	-3.448E+6	39.47E+6
			1060	643700.	-2.553E+6	-3.448E+6	56.56E+6
1805	C3		619	-6.605E+6	3.059E+6	-225000.	43.65E+6
			1060	-6.605E+6	3.059E+6	-225000.	43.60E+6
1806	C3		1060	-1.012E+6	-2.473E+6	4.141E+6	36.05E+6
			1081	-1.012E+6	-2.473E+6	4.141E+6	51.49E+6
1807	C3		1060	1.140E+6	-1.020E+6	-4.375E+6	48.08E+6
			1061	1.140E+6	-1.020E+6	-4.375E+6	56.06E+6
1808	C3		620	-10.59E+6	-2.590E+6	-272000.	60.79E+6
			1061	-10.59E+6	-2.590E+6	-272000.	60.85E+6
1809	C3		1061	-1.372E+6	-4.037E+6	5.042E+6	43.79E+6
			1082	-1.372E+6	-4.037E+6	5.042E+6	57.55E+6
1810	C3		1061	1.532E+6	3.067E+6	-5.384E+6	67.46E+6
			1062	1.532E+6	3.067E+6	-5.384E+6	44.03E+6
1811	C3		621	-16.55E+6	-10.88E+6	-297000.	122.0E+6
			1062	-16.55E+6	-10.88E+6	-297000.	122.2E+6
1812	C3		1062	-1.602E+6	-7.597E+6	5.944E+6	60.89E+6
			1083	-1.602E+6	-7.597E+6	5.944E+6	74.93E+6
1813	C3		1062	1.797E+6	7.901E+6	-6.500E+6	84.00E+6
			1063	1.797E+6	7.901E+6	-6.500E+6	61.73E+6
1814	C3		622	-24.94E+6	-19.35E+6	-264400.	195.0E+6
			1063	-24.94E+6	-19.35E+6	-264400.	195.2E+6
1815	C3		1063	-1.660E+6	-11.58E+6	6.583E+6	79.76E+6
			1084	-1.660E+6	-11.58E+6	6.583E+6	97.35E+6
1816	C3		1063	1.906E+6	12.00E+6	-7.590E+6	90.07E+6
			1064	1.906E+6	12.00E+6	-7.590E+6	76.92E+6
1817	C3		623	-35.84E+6	-25.12E+6	-163900.	267.6E+6
			1064	-35.84E+6	-25.12E+6	-163900.	267.7E+6
1818	C3		1064	-1.480E+6	-16.16E+6	6.914E+6	101.1E+6
			1085	-1.480E+6	-16.16E+6	6.914E+6	126.4E+6
1819	C3		1064	1.762E+6	13.96E+6	-8.110E+6	80.49E+6
			1065	1.762E+6	13.96E+6	-8.110E+6	81.59E+6
1820	C3		624	-48.36E+6	-25.54E+6	-167500.	324.6E+6
			1065	-48.36E+6	-25.54E+6	-167500.	324.7E+6
1821	C3		1065	-821900.	-20.83E+6	6.301E+6	122.1E+6
			1086	-821900.	-20.83E+6	6.301E+6	160.0E+6
1822	C3		1065	935900.	12.40E+6	-6.825E+6	61.29E+6
			1066	935900.	12.40E+6	-6.825E+6	70.35E+6
1823	C3		625	-60.37E+6	-18.90E+6	-731100.	350.3E+6
			1066	-60.37E+6	-18.90E+6	-731100.	350.8E+6
1824	C3		1066	948800.	-24.79E+6	4.158E+6	142.5E+6
			1087	948800.	-24.79E+6	4.158E+6	200.2E+6
1825	C3		1066	-1.834E+6	6.896E+6	-2.581E+6	39.01E+6
			1067	-1.834E+6	6.896E+6	-2.581E+6	62.23E+6
1826	C3		626	-68.87E+6	-6.748E+6	-961000.	339.6E+6
			1067	-68.87E+6	-6.748E+6	-961000.	340.1E+6
1827	C3		1067	4.433E+6	-27.77E+6	758300.	178.7E+6
			1088	4.433E+6	-27.77E+6	758300.	242.7E+6
1828	C3		1067	-7.224E+6	-121000.	2.056E+6	62.48E+6
			1068	-7.224E+6	-121000.	2.056E+6	58.87E+6
1829	C3		627	-66.22E+6	5.153E+6	-943300.	321.9E+6
			1068	-66.22E+6	5.153E+6	-943300.	321.3E+6
1830	C3		1068	7.079E+6	-27.92E+6	-2.408E+6	197.0E+6
			1089	7.079E+6	-27.92E+6	-2.408E+6	256.9E+6
1831	C3		1068	-8.201E+6	-5.378E+6	5.492E+6	77.43E+6
			1069	-8.201E+6	-5.378E+6	5.492E+6	67.82E+6
1832	C3		628	-59.39E+6	11.24E+6	-1.020E+6	315.4E+6
			1069	-59.39E+6	11.24E+6	-1.020E+6	314.7E+6
1833	C3		1069	6.598E+6	-26.67E+6	-3.902E+6	196.9E+6
			1090	6.598E+6	-26.67E+6	-3.902E+6	247.0E+6
1834	C3		1069	-6.170E+6	-6.551E+6	5.612E+6	59.91E+6
			1070	-6.170E+6	-6.551E+6	5.612E+6	66.82E+6
1835	C3		629	-52.09E+6	10.45E+6	-465100.	279.1E+6
			1070	-52.09E+6	10.45E+6	-465100.	278.8E+6
1836	C3		1070	4.474E+6	-24.60E+6	-3.597E+6	183.4E+6
			1091	4.474E+6	-24.60E+6	-3.597E+6	225.7E+6
1837	C3		1070	-3.670E+6	-4.303E+6	3.726E+6	30.31E+6
			1071	-3.670E+6	-4.303E+6	3.726E+6	45.18E+6
1838	C3		630	-46.16E+6	5.694E+6	453800.	233.1E+6
			1071	-46.16E+6	5.694E+6	453800.	233.4E+6
1839	C3		1071	1.944E+6	-22.37E+6	-2.373E+6	164.9E+6
			1092	1.944E+6	-22.37E+6	-2.373E+6	203.1E+6
1840	C3		631	7.387E+6	1.410E+6	-410600.	40.23E+6
			1072	7.387E+6	1.410E+6	-410600.	40.50E+6
1841	C3		1072	323300.	6.084E+6	63210.	99.05E+6
			1093	323300.	6.084E+6	63210.	67.31E+6
1842	C3		1072	-619800.	-1.062E+6	374200.	10.37E+6
			1073	-619800.	-1.062E+6	374200.	5.580E+6
1843	C3		632	7.654E+6	3.078E+6	-535900.	48.23E+6
			1073	7.654E+6	3.078E+6	-535900.	48.58E+6
1844	C3		1073	1.288E+6	6.097E+6	-317900.	105.6E+6
			1094	1.288E+6	6.097E+6	-317900.	72.88E+6
1845	C3		1073	-2.010E+6	-2.048E+6	826300.	22.65E+6
			1074	-2.010E+6	-2.048E+6	826300.	16.47E+6
1846	C3		633	7.519E+6	4.947E+6	-793600.	55.41E+6
			1074	7.519E+6	4.947E+6	-793600.	55.94E+6
1847	C3		1074	2.730E+6	6.002E+6	-394200.	114.3E+6
			1095	2.730E+6	6.002E+6	-394200.	80.15E+6
1848	C3		1074	-3.930E+6	-3.012E+6	863700.	36.54E+6
			1075	-3.930E+6	-3.012E+6	863700.	32.03E+6
1849	C3		634	7.008E+6	6.747E+6	-900700.	60.83E+6
			1075	7.008E+6	6.747E+6	-900700.	61.43E+6
1850	C3		1075	3.574E+6	5.675E+6	-53930.	116.2E+6
			1096	3.574E+6	5.675E+6	-53930.	81.02E+6
1851	C3		1075	-4.095E+6	-3.865E+6	479400.	41.77E+6
			1076	-4.095E+6	-3.865E+6	479400.	41.58E+6
1852	C3		635	5.882E+6	8.307E+6	-868700.	62.83E+6
			1076	5.882E+6	8.307E+6	-868700.	63.42E+6
1853	C3		1076	2.864E+6	5.034E+6	643600.	107.9E+6
			1097	2.864E+6	5.034E+6	643600.	72.98E+6
1854	C3		1076	-2.453E+6	-4.570E+6	-300100.	39.72E+6
			1077	-2.453E+6	-4.570E+6	-300100.	43.28E+6
1855	C3		636	4.371E+6	9.406E+6	-578500.	61.39E+6
			1077	4.371E+6	9.406E+6	-578500.	61.78E+6
1856	C3		1077	1.430E+6	4.138E+6	1.540E+6	91.05E+6
			1098	1.430E+6	4.138E+6	1.540E+6	58.09E+6
1857	C3		1077	-1.026E+6	-4.960E+6	-1.407E+6	38.74E+6
			1078	-1.026E+6	-4.960E+6	-1.407E+6	44.87E+6
1858	C3		637	3.398E+6	9.819E+6	-233700.	59.26E+6
			1078	3.398E+6	9.819E+6	-233700.	59.41E+6
1859	C3		1078	350100.	3.448E+6	2.460E+6	74.24E+6
			1099	350100.	3.448E+6	2.460E+6	45.06E+6
1860	C3		1078	-155500.	-4.984E+6	-2.424E+6	38.83E+6
			1079	-155500.	-4.984E+6	-2.424E+6	47.56E+6
1861	C3		638	2.179E+6	9.396E+6	-94930.	52.39E+6
			1079	2.179E+6	9.396E+6	-94930.	52.45E+6
1862	C3		1079	-314000.	2.593E+6	3.276E+6	60.99E+6
			1100	-314000.	2.593E+6	3.276E+6	40.70E+6
1863	C3		1079	419700.	-4.561E+6	-3.260E+6	42.11E+6
			1080	419700.	-4.561E+6	-3.260E+6	51.82E+6
1864	C3		639	115300.	8.035E+6	-81690.	38.05E+6
			1080	115300.	8.035E+6	-81690.	38.10E+6
1865	C3		1080	-739500.	1.307E+6	3.934E+6	51.01E+6
			1101	-739500.	1.307E+6	3.934E+6	41.14E+6
1866	C3		1080	840900.	-3.683E+6	-3.959E+6	42.13E+6
			1081	840900.	-3.683E+6	-3.959E+6	55.10E+6
1867	C3		640	-2.963E+6	5.611E+6	-107400.	38.81E+6
			1081	-2.963E+6	5.611E+6	-107400.	38.74E+6
1868	C3		1081	-1.010E+6	-537700.	4.517E+6	41.72E+6
			1102	-1.010E+6	-537700.	4.517E+6	46.09E+6
1869	C3		1081	1.140E+6	-2.274E+6	-4.572E+6	37.84E+6
			1082	1.140E+6	-2.274E+6	-4.572E+6	54.82E+6
1870	C3		641	-7.128E+6	1.501E+6	-132700.	39.56E+6
			1082	-7.128E+6	1.501E+6	-132700.	39.59E+6
1871	C3		1082	-1.136E+6	-3.274E+6	4.805E+6	40.86E+6
			1103	-1.136E+6	-3.274E+6	4.805E+6	58.10E+6
1872	C3		1082	1.316E+6	122900.	-5.134E+6	49.79E+6
			1083	1.316E+6	122900.	-5.134E+6	48.86E+6
1873	C3		642	-12.46E+6	-4.924E+6	-135500.	78.85E+6
			1083	-12.46E+6	-4.924E+6	-135500.	78.84E+6
1874	C3		1083	-1.118E+6	-5.230E+6	4.974E+6	50.90E+6
			1104	-1.118E+6	-5.230E+6	4.974E+6	70.22E+6
1875	C3		1083	1.353E+6	4.467E+6	-5.613E+6	65.61E+6
			1084	1.353E+6	4.467E+6	-5.613E+6	45.36E+6
1876	C3		643	-18.96E+6	-11.68E+6	-101700.	136.1E+6
			1084	-18.96E+6	-11.68E+6	-101700.	136.2E+6
1877	C3		1084	-940800.	-7.953E+6	5.112E+6	65.08E+6
			1105	-940800.	-7.953E+6	5.112E+6	89.26E+6
1878	C3		1084	1.222E+6	7.498E+6	-5.844E+6	69.63E+6
			1085	1.222E+6	7.498E+6	-5.844E+6	56.57E+6
1879	C3		644	-26.25E+6	-15.96E+6	-53070.	186.4E+6
			1085	-26.25E+6	-15.96E+6	-53070.	186.4E+6
1880	C3		1085	-539300.	-10.84E+6	4.783E+6	80.62E+6
			1106	-539300.	-10.84E+6	4.783E+6	112.7E+6
1881	C3		1085	834700.	8.841E+6	-5.451E+6	61.93E+6
			1086	834700.	8.841E+6	-5.451E+6	58.36E+6
1882	C3		645	-33.41E+6	-16.63E+6	-161000.	220.9E+6
			1086	-33.41E+6	-16.63E+6	-161000.	221.0E+6
1883	C3		1086	281000.	-13.42E+6	3.836E+6	95.89E+6
			1107	281000.	-13.42E+6	3.836E+6	141.6E+6
1884	C3		1086	-164500.	8.098E+6	-3.889E+6	46.45E+6
			1087	-164500.	8.098E+6	-3.889E+6	47.98E+6
1885	C3		646	-39.67E+6	-13.52E+6	-732700.	235.7E+6
			1087	-39.67E+6	-13.52E+6	-732700.	236.2E+6
1886	C3		1087	2.032E+6	-15.62E+6	2.210E+6	122.9E+6
			1108	2.032E+6	-15.62E+6	2.210E+6	178.4E+6
1887	C3		1087	-2.772E+6	5.595E+6	-1.065E+6	35.42E+6
			1088	-2.772E+6	5.595E+6	-1.065E+6	40.50E+6
1888	C3		647	-45.01E+6	-7.809E+6	-1.116E+6	236.3E+6
			1088	-45.01E+6	-7.809E+6	-1.116E+6	237.1E+6
1889	C3		1088	5.106E+6	-17.72E+6	200900.	156.4E+6
			1109	5.106E+6	-17.72E+6	200900.	217.1E+6
1890	C3		1088	-7.368E+6	2.232E+6	1.497E+6	40.92E+6
			1089	-7.368E+6	2.232E+6	1.497E+6	48.78E+6
1891	C3		648	-45.61E+6	-1.842E+6	-1.246E+6	215.5E+6
			1089	-45.61E+6	-1.842E+6	-1.246E+6	216.3E+6
1892	C3		1089	7.298E+6	-18.50E+6	-1.584E+6	175.2E+6
			1110	7.298E+6	-18.50E+6	-1.584E+6	236.5E+6
1893	C3		1089	-8.125E+6	-513400.	3.560E+6	44.94E+6
			1090	-8.125E+6	-513400.	3.560E+6	43.52E+6
1894	C3		649	-44.34E+6	2.102E+6	-1.300E+6	211.6E+6
			1090	-44.34E+6	2.102E+6	-1.300E+6	210.7E+6
1895	C3		1090	6.572E+6	-18.70E+6	-2.555E+6	177.8E+6
			1111	6.572E+6	-18.70E+6	-2.555E+6	236.1E+6
1896	C3		1090	-5.879E+6	-1.812E+6	3.915E+6	35.05E+6
			1091	-5.879E+6	-1.812E+6	3.915E+6	39.48E+6
1897	C3		650	-41.82E+6	3.114E+6	-766100.	203.9E+6
			1091	-41.82E+6	3.114E+6	-766100.	203.4E+6
1898	C3		1091	4.285E+6	-18.28E+6	-2.493E+6	167.8E+6
			1112	4.285E+6	-18.28E+6	-2.493E+6	222.6E+6
1899	C3		1091	-3.248E+6	-1.466E+6	2.704E+6	18.60E+6
			1092	-3.248E+6	-1.466E+6	2.704E+6	26.21E+6
1900	C3		651	-38.70E+6	1.929E+6	60000.	184.7E+6
			1092	-38.70E+6	1.929E+6	60000.	184.7E+6
1901	C3		1092	1.794E+6	-17.17E+6	-1.708E+6	152.3E+6
			1113	1.794E+6	-17.17E+6	-1.708E+6	205.1E+6
1902	C3		652	15.04E+6	75350.	-411100.	69.45E+6
			1093	15.04E+6	75350.	-411100.	69.72E+6
1903	C3		1093	465500.	9.498E+6	-301000.	104.6E+6
			1114	465500.	9.498E+6	-301000.	78.95E+6
1904	C3		1093	-759200.	-81390.	614400.	5.514E+6
			1094	-759200.	-81390.	614400.	3.318E+6
1905	C3		653	15.57E+6	615200.	-571100.	73.94E+6
			1094	15.57E+6	615200.	-571100.	74.32E+6
1906	C3		1094	1.518E+6	9.886E+6	-800500.	113.2E+6
			1115	1.518E+6	9.886E+6	-800500.	85.39E+6
1907	C3		1094	-2.178E+6	-536500.	1.104E+6	15.26E+6
			1095	-2.178E+6	-536500.	1.104E+6	10.23E+6
1908	C3		654	15.88E+6	1.935E+6	-828000.	80.49E+6
			1095	15.88E+6	1.935E+6	-828000.	81.04E+6
1909	C3		1095	2.881E+6	10.23E+6	-878500.	124.2E+6
			1116	2.881E+6	10.23E+6	-878500.	92.94E+6
1910	C3		1095	-3.873E+6	-1.432E+6	1.031E+6	27.32E+6
			1096	-3.873E+6	-1.432E+6	1.031E+6	21.30E+6
1911	C3		655	15.61E+6	4.013E+6	-894300.	87.60E+6
			1096	15.61E+6	4.013E+6	-894300.	88.19E+6
1912	C3		1096	3.594E+6	10.22E+6	-323000.	128.9E+6
			1117	3.594E+6	10.22E+6	-323000.	94.22E+6
1913	C3		1096	-3.959E+6	-2.648E+6	340600.	33.01E+6
			1097	-3.959E+6	-2.648E+6	340600.	29.71E+6
1914	C3		656	14.51E+6	6.545E+6	-809400.	93.14E+6
			1097	14.51E+6	6.545E+6	-809400.	93.69E+6
1915	C3		1097	2.714E+6	9.718E+6	771000.	122.7E+6
			1118	2.714E+6	9.718E+6	771000.	86.55E+6
1916	C3		1097	-2.071E+6	-4.000E+6	-770500.	32.22E+6
			1098	-2.071E+6	-4.000E+6	-770500.	31.93E+6
1917	C3		657	12.43E+6	8.975E+6	-460800.	94.27E+6
			1098	12.43E+6	8.975E+6	-460800.	94.58E+6
1918	C3		1098	1.106E+6	8.580E+6	2.078E+6	105.3E+6
			1119	1.106E+6	8.580E+6	2.078E+6	70.53E+6
1919	C3		1098	-547100.	-5.109E+6	-2.182E+6	34.17E+6
			1099	-547100.	-5.109E+6	-2.182E+6	36.32E+6
1920	C3		658	10.66E+6	10.73E+6	-65300.	94.23E+6
			1099	10.66E+6	10.73E+6	-65300.	94.27E+6
1921	C3		1099	10620.	7.466E+6	3.235E+6	87.00E+6
			1120	10620.	7.466E+6	3.235E+6	58.25E+6
1922	C3		1099	245800.	-5.794E+6	-3.279E+6	41.35E+6
			1100	245800.	-5.794E+6	-3.279E+6	43.32E+6
1923	C3		659	8.392E+6	11.45E+6	59400.	87.60E+6
			1100	8.392E+6	11.45E+6	59400.	87.56E+6
1924	C3		1100	-540900.	6.009E+6	4.019E+6	73.32E+6
			1121	-540900.	6.009E+6	4.019E+6	51.13E+6
1925	C3		1100	663500.	-5.878E+6	-3.973E+6	46.64E+6
			1101	663500.	-5.878E+6	-3.973E+6	52.64E+6
1926	C3		660	5.302E+6	10.97E+6	52750.	72.39E+6
			1101	5.302E+6	10.97E+6	52750.	72.34E+6
1927	C3		1101	-786700.	4.140E+6	4.401E+6	61.10E+6
			1122	-786700.	4.140E+6	4.401E+6	42.56E+6
1928	C3		1101	890300.	-5.366E+6	-4.369E+6	48.37E+6
			1102	890300.	-5.366E+6	-4.369E+6	58.00E+6
1929	C3		661	1.578E+6	9.436E+6	21900.	50.13E+6
			1102	1.578E+6	9.436E+6	21900.	50.21E+6
1930	C3		1102	-841100.	2.158E+6	4.408E+6	51.24E+6
			1123	-841100.	2.158E+6	4.408E+6	34.98E+6
1931	C3		1102	970200.	-4.773E+6	-4.569E+6	47.50E+6
			1103	970200.	-4.773E+6	-4.569E+6	62.53E+6
1932	C3		662	-2.581E+6	5.801E+6	245.2	39.31E+6
			1103	-2.581E+6	5.801E+6	245.2	39.42E+6
1933	C3		1103	-743100.	605700.	4.393E+6	46.51E+6
			1124	-743100.	605700.	4.393E+6	42.17E+6
1934	C3		1103	909200.	-1.813E+6	-4.629E+6	40.60E+6
			1104	909200.	-1.813E+6	-4.629E+6	54.57E+6
1935	C3		663	-7.056E+6	-117600.	-3514.	35.05E+6
			1104	-7.056E+6	-117600.	-3514.	35.05E+6
1936	C3		1104	-491400.	-2.053E+6	4.221E+6	41.44E+6
			1125	-491400.	-2.053E+6	4.221E+6	57.80E+6
1937	C3		1104	701200.	1.667E+6	-4.531E+6	52.79E+6
			1105	701200.	1.667E+6	-4.531E+6	39.87E+6
1938	C3		664	-11.69E+6	-6.114E+6	6655.	80.39E+6
			1105	-11.69E+6	-6.114E+6	6655.	80.38E+6
1939	C3		1105	-70450.	-4.086E+6	3.682E+6	47.41E+6
			1126	-70450.	-4.086E+6	3.682E+6	74.75E+6
1940	C3		1105	325900.	4.465E+6	-4.166E+6	57.94E+6
			1106	325900.	4.465E+6	-4.166E+6	42.00E+6
1941	C3		665	-16.12E+6	-10.37E+6	-8319.	118.0E+6
			1106	-16.12E+6	-10.37E+6	-8319.	118.0E+6
1942	C3		1106	554300.	-5.728E+6	2.954E+6	62.08E+6
			1127	554300.	-5.728E+6	2.954E+6	98.42E+6
1943	C3		1106	-290300.	6.024E+6	-3.347E+6	57.61E+6
			1107	-290300.	6.024E+6	-3.347E+6	44.94E+6
1944	C3		666	-19.93E+6	-12.20E+6	-196400.	142.5E+6
			1107	-19.93E+6	-12.20E+6	-196400.	142.6E+6
1945	C3		1107	1.542E+6	-7.002E+6	1.920E+6	80.92E+6
			1128	1.542E+6	-7.002E+6	1.920E+6	126.2E+6
1946	C3		1107	-1.443E+6	6.277E+6	-1.869E+6	54.44E+6
			1108	-1.443E+6	6.277E+6	-1.869E+6	47.03E+6
1947	C3		667	-23.27E+6	-11.68E+6	-747600.	155.0E+6
			1108	-23.27E+6	-11.68E+6	-747600.	155.5E+6
1948	C3		1108	3.310E+6	-8.154E+6	633700.	105.5E+6
			1129	3.310E+6	-8.154E+6	633700.	159.1E+6
1949	C3		1108	-3.929E+6	5.480E+6	160600.	53.42E+6
			1109	-3.929E+6	5.480E+6	160600.	49.96E+6
1950	C3		668	-26.87E+6	-9.433E+6	-1.162E+6	161.6E+6
			1109	-26.87E+6	-9.433E+6	-1.162E+6	162.4E+6
1951	C3		1109	6.086E+6	-9.552E+6	-708400.	136.0E+6
			1130	6.086E+6	-9.552E+6	-708400.	195.1E+6
1952	C3		1109	-7.884E+6	3.980E+6	1.809E+6	57.27E+6
			1110	-7.884E+6	3.980E+6	1.809E+6	59.13E+6
1953	C3		669	-28.35E+6	-6.503E+6	-1.302E+6	156.2E+6
			1110	-28.35E+6	-6.503E+6	-1.302E+6	157.1E+6
1954	C3		1110	7.921E+6	-10.37E+6	-1.808E+6	154.3E+6
			1131	7.921E+6	-10.37E+6	-1.808E+6	216.6E+6
1955	C3		1110	-8.428E+6	2.513E+6	3.028E+6	47.96E+6
			1111	-8.428E+6	2.513E+6	3.028E+6	55.83E+6
1956	C3		670	-28.95E+6	-3.868E+6	-1.291E+6	148.4E+6
			1111	-28.95E+6	-3.868E+6	-1.291E+6	149.2E+6
1957	C3		1111	6.944E+6	-10.86E+6	-2.380E+6	156.7E+6
			1132	6.944E+6	-10.86E+6	-2.380E+6	219.8E+6
1958	C3		1111	-5.896E+6	1.330E+6	3.198E+6	29.48E+6
			1112	-5.896E+6	1.330E+6	3.198E+6	38.90E+6
1959	C3		671	-28.52E+6	-1.977E+6	-751100.	139.0E+6
			1112	-28.52E+6	-1.977E+6	-751100.	139.5E+6
1960	C3		1112	4.483E+6	-10.87E+6	-2.303E+6	145.9E+6
			1133	4.483E+6	-10.87E+6	-2.303E+6	209.0E+6
1961	C3		1112	-3.200E+6	587200.	2.212E+6	15.18E+6
			1113	-3.200E+6	587200.	2.212E+6	21.77E+6
1962	C3		672	-26.58E+6	-835300.	85530.	125.9E+6
			1113	-26.58E+6	-835300.	85530.	125.8E+6
1963	C3		1113	1.920E+6	-9.919E+6	-1.735E+6	129.1E+6
			1134	1.920E+6	-9.919E+6	-1.735E+6	192.4E+6
1964	C3		673	20.54E+6	-1.628E+6	-189000.	100.4E+6
			1114	20.54E+6	-1.628E+6	-189000.	100.3E+6
1965	C3		1114	767000.	11.65E+6	-1.065E+6	101.8E+6
			1135	767000.	11.65E+6	-1.065E+6	84.44E+6
1966	C3		1114	-1.096E+6	1.185E+6	1.154E+6	13.00E+6
			1115	-1.096E+6	1.185E+6	1.154E+6	8.758E+6
1967	C3		674	22.23E+6	-2.562E+6	-446700.	111.9E+6
			1115	22.23E+6	-2.562E+6	-446700.	111.6E+6
1968	C3		1115	1.967E+6	12.96E+6	-1.801E+6	114.8E+6
			1136	1.967E+6	12.96E+6	-1.801E+6	94.30E+6
1969	C3		1115	-2.515E+6	1.442E+6	1.813E+6	20.71E+6
			1116	-2.515E+6	1.442E+6	1.813E+6	18.75E+6
1970	C3		675	24.10E+6	-1.892E+6	-720600.	117.8E+6
			1116	24.10E+6	-1.892E+6	-720600.	117.3E+6
1971	C3		1116	3.261E+6	14.46E+6	-2.054E+6	130.9E+6
			1137	3.261E+6	14.46E+6	-2.054E+6	104.7E+6
1972	C3		1116	-4.040E+6	547100.	1.678E+6	23.36E+6
			1117	-4.040E+6	547100.	1.678E+6	25.51E+6
1973	C3		676	25.27E+6	865300.	-770400.	118.6E+6
			1117	25.27E+6	865300.	-770400.	119.1E+6
1974	C3		1117	3.858E+6	15.51E+6	-1.268E+6	141.8E+6
			1138	3.858E+6	15.51E+6	-1.268E+6	108.2E+6
1975	C3		1117	-4.049E+6	-1.400E+6	542100.	30.74E+6
			1118	-4.049E+6	-1.400E+6	542100.	22.95E+6
1976	C3		677	25.00E+6	5.213E+6	-677400.	134.6E+6
			1118	25.00E+6	5.213E+6	-677400.	135.1E+6
1977	C3		1118	2.762E+6	15.56E+6	584700.	139.8E+6
			1139	2.762E+6	15.56E+6	584700.	101.5E+6
1978	C3		1118	-1.838E+6	-3.901E+6	-1.141E+6	29.55E+6
			1119	-1.838E+6	-3.901E+6	-1.141E+6	22.10E+6
1979	C3		678	22.37E+6	9.893E+6	-297200.	142.1E+6
			1119	22.37E+6	9.893E+6	-297200.	142.3E+6
1980	C3		1119	908800.	14.19E+6	2.743E+6	121.7E+6
			1140	908800.	14.19E+6	2.743E+6	84.62E+6
1981	C3		1119	-165800.	-6.171E+6	-3.091E+6	35.92E+6
			1120	-165800.	-6.171E+6	-3.091E+6	32.23E+6
1982	C3		679	19.35E+6	13.57E+6	137400.	144.5E+6
			1120	19.35E+6	13.57E+6	137400.	144.4E+6
1983	C3		1120	-233300.	12.31E+6	4.308E+6	100.0E+6
			1141	-233300.	12.31E+6	4.308E+6	73.85E+6
1984	C3		1120	545700.	-7.685E+6	-4.304E+6	49.04E+6
			1121	545700.	-7.685E+6	-4.304E+6	46.67E+6
1985	C3		680	15.43E+6	15.45E+6	222300.	135.5E+6
			1121	15.43E+6	15.45E+6	222300.	135.3E+6
1986	C3		1121	-672300.	9.812E+6	4.966E+6	83.07E+6
			1142	-672300.	9.812E+6	4.966E+6	63.90E+6
1987	C3		1121	789300.	-8.154E+6	-4.755E+6	55.92E+6
			1122	789300.	-8.154E+6	-4.755E+6	59.48E+6
1988	C3		681	10.89E+6	15.40E+6	180600.	115.7E+6
			1122	10.89E+6	15.40E+6	180600.	115.6E+6
1989	C3		1122	-733100.	7.042E+6	4.926E+6	67.63E+6
			1143	-733100.	7.042E+6	4.926E+6	52.35E+6
1990	C3		1122	806500.	-7.722E+6	-4.723E+6	57.84E+6
			1123	806500.	-7.722E+6	-4.723E+6	66.98E+6
1991	C3		682	6.370E+6	13.70E+6	137800.	89.01E+6
			1123	6.370E+6	13.70E+6	137800.	88.92E+6
1992	C3		1123	-568700.	4.366E+6	4.571E+6	55.77E+6
			1144	-568700.	4.366E+6	4.571E+6	41.17E+6
1993	C3		1123	655100.	-6.586E+6	-4.430E+6	55.01E+6
			1124	655100.	-6.586E+6	-4.430E+6	69.94E+6
1994	C3		683	2.241E+6	10.14E+6	115300.	56.05E+6
			1124	2.241E+6	10.14E+6	115300.	56.09E+6
1995	C3		1124	-219100.	1.650E+6	3.859E+6	46.86E+6
			1145	-219100.	1.650E+6	3.859E+6	34.20E+6
1996	C3		1124	349100.	-4.471E+6	-3.984E+6	45.30E+6
			1125	349100.	-4.471E+6	-3.984E+6	66.66E+6
1997	C3		684	-1.365E+6	4.226E+6	106000.	27.28E+6
			1125	-1.365E+6	4.226E+6	106000.	27.44E+6
1998	C3		1125	289200.	586000.	3.036E+6	50.74E+6
			1146	289200.	586000.	3.036E+6	45.60E+6
1999	C3		1125	-106300.	-399600.	-3.397E+6	47.46E+6
			1126	-106300.	-399600.	-3.397E+6	50.79E+6
2000	C3		685	-4.366E+6	-2.321E+6	91600.	32.03E+6
			1126	-4.366E+6	-2.321E+6	91600.	31.98E+6
2001	C3		1126	944800.	-463300.	2.269E+6	60.43E+6
			1147	944800.	-463300.	2.269E+6	64.05E+6
2002	C3		1126	-722400.	2.633E+6	-2.614E+6	59.82E+6
			1127	-722400.	2.633E+6	-2.614E+6	37.97E+6
2003	C3		686	-6.637E+6	-7.354E+6	25650.	63.58E+6
			1127	-6.637E+6	-7.354E+6	25650.	63.57E+6
2004	C3		1127	1.785E+6	-1.140E+6	1.288E+6	76.11E+6
			1148	1.785E+6	-1.140E+6	1.288E+6	85.44E+6
2005	C3		1127	-1.559E+6	4.713E+6	-1.555E+6	66.17E+6
			1128	-1.559E+6	4.713E+6	-1.555E+6	48.70E+6
2006	C3		687	-8.178E+6	-10.52E+6	-211000.	83.97E+6
			1128	-8.178E+6	-10.52E+6	-211000.	84.11E+6
2007	C3		1128	2.945E+6	-1.447E+6	185800.	98.10E+6
			1149	2.945E+6	-1.447E+6	185800.	110.1E+6
2008	C3		1128	-2.866E+6	5.824E+6	-154900.	68.92E+6
			1129	-2.866E+6	5.824E+6	-154900.	55.82E+6
2009	C3		688	-9.603E+6	-11.87E+6	-724000.	95.88E+6
			1129	-9.603E+6	-11.87E+6	-724000.	96.36E+6
2010	C3		1129	4.762E+6	-1.755E+6	-936700.	125.4E+6
			1150	4.762E+6	-1.755E+6	-936700.	140.0E+6
2011	C3		1129	-5.284E+6	6.092E+6	1.440E+6	72.59E+6
			1130	-5.284E+6	6.092E+6	1.440E+6	63.55E+6
2012	C3		689	-11.75E+6	-11.68E+6	-1.110E+6	104.1E+6
			1130	-11.75E+6	-11.68E+6	-1.110E+6	104.9E+6
2013	C3		1130	7.334E+6	-2.434E+6	-1.940E+6	153.3E+6
			1151	7.334E+6	-2.434E+6	-1.940E+6	173.2E+6
2014	C3		1130	-8.749E+6	5.641E+6	2.589E+6	77.09E+6
			1131	-8.749E+6	5.641E+6	2.589E+6	74.41E+6
2015	C3		690	-12.97E+6	-10.37E+6	-1.184E+6	103.8E+6
			1131	-12.97E+6	-10.37E+6	-1.184E+6	104.6E+6
2016	C3		1131	8.895E+6	-2.872E+6	-2.660E+6	171.7E+6
			1152	8.895E+6	-2.872E+6	-2.660E+6	194.7E+6
2017	C3		1131	-9.102E+6	4.809E+6	3.270E+6	66.24E+6
			1132	-9.102E+6	4.809E+6	3.270E+6	71.83E+6
2018	C3		691	-13.54E+6	-8.317E+6	-1.073E+6	97.63E+6
			1132	-13.54E+6	-8.317E+6	-1.073E+6	98.34E+6
2019	C3		1132	7.648E+6	-2.979E+6	-2.959E+6	174.4E+6
			1153	7.648E+6	-2.979E+6	-2.959E+6	197.9E+6
2020	C3		1132	-6.202E+6	3.600E+6	3.220E+6	42.10E+6
			1133	-6.202E+6	3.600E+6	3.220E+6	52.33E+6
2021	C3		692	-13.31E+6	-5.697E+6	-493500.	85.73E+6
			1133	-13.31E+6	-5.697E+6	-493500.	86.06E+6
2022	C3		1133	4.986E+6	-2.691E+6	-2.805E+6	165.0E+6
			1154	4.986E+6	-2.691E+6	-2.805E+6	185.8E+6
2023	C3		1133	-3.487E+6	2.084E+6	2.239E+6	20.60E+6
			1134	-3.487E+6	2.084E+6	2.239E+6	31.38E+6
2024	C3		693	-11.06E+6	-2.870E+6	456900.	64.34E+6
			1134	-11.06E+6	-2.870E+6	456900.	64.04E+6
2025	C3		1134	2.255E+6	-1.168E+6	-2.330E+6	158.2E+6
			1155	2.255E+6	-1.168E+6	-2.330E+6	166.2E+6
2026	C3		694	23.30E+6	-3.802E+6	282900.	121.4E+6
			1135	23.30E+6	-3.802E+6	282900.	121.6E+6
2027	C3		1135	1.224E+6	12.16E+6	-2.113E+6	90.36E+6
			1156	1.224E+6	12.16E+6	-2.113E+6	82.94E+6
2028	C3		1135	-1.618E+6	2.821E+6	1.956E+6	25.75E+6
			1136	-1.618E+6	2.821E+6	1.956E+6	17.26E+6
2029	C3		695	26.99E+6	-6.872E+6	-127800.	150.4E+6
			1136	26.99E+6	-6.872E+6	-127800.	150.3E+6
2030	C3		1136	2.604E+6	14.86E+6	-3.213E+6	108.6E+6
			1157	2.604E+6	14.86E+6	-3.213E+6	98.61E+6
2031	C3		1136	-3.000E+6	4.256E+6	3.041E+6	39.04E+6
			1137	-3.000E+6	4.256E+6	3.041E+6	35.17E+6
2032	C3		696	31.91E+6	-7.447E+6	-427800.	175.0E+6
			1137	31.91E+6	-7.447E+6	-427800.	174.7E+6
2033	C3		1137	3.841E+6	18.47E+6	-4.147E+6	132.3E+6
			1158	3.841E+6	18.47E+6	-4.147E+6	115.9E+6
2034	C3		1137	-4.403E+6	3.580E+6	3.151E+6	40.76E+6
			1138	-4.403E+6	3.580E+6	3.151E+6	46.76E+6
2035	C3		697	36.74E+6	-3.681E+6	-491300.	181.7E+6
			1138	36.74E+6	-3.681E+6	-491300.	181.3E+6
2036	C3		1138	4.342E+6	22.13E+6	-3.554E+6	156.1E+6
			1159	4.342E+6	22.13E+6	-3.554E+6	126.4E+6
2037	C3		1138	-4.354E+6	270900.	1.366E+6	37.46E+6
			1139	-4.354E+6	270900.	1.366E+6	40.27E+6
2038	C3		698	38.93E+6	4.085E+6	-468200.	192.9E+6
			1139	38.93E+6	4.085E+6	-468200.	193.1E+6
2039	C3		1139	2.991E+6	23.49E+6	-82400.	163.5E+6
			1160	2.991E+6	23.49E+6	-82400.	119.0E+6
2040	C3		1139	-1.741E+6	-4.433E+6	-1.545E+6	44.86E+6
			1140	-1.741E+6	-4.433E+6	-1.545E+6	27.02E+6
2041	C3		699	35.32E+6	12.88E+6	-118500.	212.3E+6
			1140	35.32E+6	12.88E+6	-118500.	212.4E+6
2042	C3		1140	818600.	21.81E+6	4.083E+6	143.1E+6
			1161	818600.	21.81E+6	4.083E+6	103.1E+6
2043	C3		1140	133800.	-8.739E+6	-4.488E+6	50.72E+6
			1141	133800.	-8.739E+6	-4.488E+6	40.23E+6
2044	C3		700	29.61E+6	19.35E+6	330600.	214.3E+6
			1141	29.61E+6	19.35E+6	330600.	214.1E+6
2045	C3		1141	-392400.	18.08E+6	6.114E+6	112.6E+6
			1162	-392400.	18.08E+6	6.114E+6	91.20E+6
2046	C3		1141	746500.	-11.17E+6	-5.719E+6	63.88E+6
			1142	746500.	-11.17E+6	-5.719E+6	57.59E+6
2047	C3		701	22.72E+6	22.10E+6	348500.	196.0E+6
			1142	22.72E+6	22.10E+6	348500.	195.7E+6
2048	C3		1142	-698300.	13.59E+6	6.245E+6	87.58E+6
			1163	-698300.	13.59E+6	6.245E+6	75.27E+6
2049	C3		1142	794600.	-11.61E+6	-5.660E+6	70.59E+6
			1143	794600.	-11.61E+6	-5.660E+6	73.64E+6
2050	C3		702	16.04E+6	21.64E+6	269400.	165.1E+6
			1143	16.04E+6	21.64E+6	269400.	164.9E+6
2051	C3		1143	-551000.	9.470E+6	5.413E+6	67.88E+6
			1164	-551000.	9.470E+6	5.413E+6	58.91E+6
2052	C3		1143	592000.	-10.70E+6	-5.001E+6	70.85E+6
			1144	592000.	-10.70E+6	-5.001E+6	81.30E+6
2053	C3		703	10.56E+6	19.17E+6	225000.	130.9E+6
			1144	10.56E+6	19.17E+6	225000.	130.9E+6
2054	C3		1144	-154000.	6.450E+6	4.214E+6	56.51E+6
			1165	-154000.	6.450E+6	4.214E+6	46.30E+6
2055	C3		1144	207400.	-9.492E+6	-4.145E+6	67.86E+6
			1145	207400.	-9.492E+6	-4.145E+6	86.07E+6
2056	C3		704	6.510E+6	14.40E+6	213500.	94.06E+6
			1145	6.510E+6	14.40E+6	213500.	94.04E+6
2057	C3		1145	422900.	4.952E+6	3.170E+6	58.01E+6
			1166	422900.	4.952E+6	3.170E+6	42.36E+6
2058	C3		1145	-340500.	-5.953E+6	-3.227E+6	53.61E+6
			1146	-340500.	-5.953E+6	-3.227E+6	81.05E+6
2059	C3		705	3.778E+6	7.345E+6	209800.	51.41E+6
			1146	3.778E+6	7.345E+6	209800.	51.27E+6
2060	C3		1146	1.159E+6	3.180E+6	2.135E+6	62.11E+6
			1167	1.159E+6	3.180E+6	2.135E+6	42.24E+6
2061	C3		1146	-1.037E+6	-1.891E+6	-2.243E+6	53.81E+6
			1147	-1.037E+6	-1.891E+6	-2.243E+6	69.49E+6
2062	C3		706	2.221E+6	-1747.	184400.	12.92E+6
			1147	2.221E+6	-1747.	184400.	12.94E+6
2063	C3		1147	2.050E+6	2.622E+6	892100.	75.28E+6
			1168	2.050E+6	2.622E+6	892100.	53.20E+6
2064	C3		1147	-1.887E+6	1.689E+6	-1.145E+6	70.53E+6
			1148	-1.887E+6	1.689E+6	-1.145E+6	56.27E+6
2065	C3		707	1.725E+6	-6.183E+6	88560.	37.57E+6
			1148	1.725E+6	-6.183E+6	88560.	37.63E+6
2066	C3		1148	3.111E+6	2.784E+6	-323700.	95.35E+6
			1169	3.111E+6	2.784E+6	-323700.	71.99E+6
2067	C3		1148	-2.940E+6	4.433E+6	103000.	81.36E+6
			1149	-2.940E+6	4.433E+6	103000.	58.81E+6
2068	C3		708	2.003E+6	-10.72E+6	-170100.	59.15E+6
			1149	2.003E+6	-10.72E+6	-170100.	59.04E+6
2069	C3		1149	4.456E+6	3.353E+6	-1.537E+6	121.4E+6
			1170	4.456E+6	3.353E+6	-1.537E+6	93.64E+6
2070	C3		1149	-4.410E+6	6.299E+6	1.500E+6	88.09E+6
			1150	-4.410E+6	6.299E+6	1.500E+6	70.15E+6
2071	C3		709	2.263E+6	-13.53E+6	-638900.	73.09E+6
			1150	2.263E+6	-13.53E+6	-638900.	72.68E+6
2072	C3		1150	6.358E+6	3.909E+6	-2.639E+6	152.2E+6
			1171	6.358E+6	3.909E+6	-2.639E+6	120.0E+6
2073	C3		1150	-6.809E+6	7.301E+6	2.869E+6	93.65E+6
			1151	-6.809E+6	7.301E+6	2.869E+6	80.69E+6
2074	C3		710	1.698E+6	-14.63E+6	-971400.	75.98E+6
			1151	1.698E+6	-14.63E+6	-971400.	75.35E+6
2075	C3		1151	8.811E+6	4.090E+6	-3.486E+6	183.5E+6
			1172	8.811E+6	4.090E+6	-3.486E+6	149.7E+6
2076	C3		1151	-9.920E+6	7.444E+6	3.711E+6	97.01E+6
			1152	-9.920E+6	7.444E+6	3.711E+6	91.78E+6
2077	C3		711	1.525E+6	-14.14E+6	-932500.	73.05E+6
			1152	1.525E+6	-14.14E+6	-932500.	72.44E+6
2078	C3		1152	10.17E+6	4.374E+6	-3.961E+6	206.0E+6
			1173	10.17E+6	4.374E+6	-3.961E+6	169.6E+6
2079	C3		1152	-10.10E+6	6.864E+6	3.989E+6	83.58E+6
			1153	-10.10E+6	6.864E+6	3.989E+6	88.56E+6
2080	C3		712	2.144E+6	-12.12E+6	-703300.	66.30E+6
			1153	2.144E+6	-12.12E+6	-703300.	65.84E+6
2081	C3		1153	8.617E+6	5.106E+6	-4.027E+6	213.0E+6
			1174	8.617E+6	5.106E+6	-4.027E+6	170.1E+6
2082	C3		1153	-6.734E+6	5.446E+6	3.725E+6	53.64E+6
			1154	-6.734E+6	5.446E+6	3.725E+6	65.27E+6
2083	C3		713	3.356E+6	-8.681E+6	-53580.	55.51E+6
			1154	3.356E+6	-8.681E+6	-53580.	55.47E+6
2084	C3		1154	5.714E+6	6.166E+6	-3.751E+6	205.7E+6
			1175	5.714E+6	6.166E+6	-3.751E+6	153.6E+6
2085	C3		1154	-4.034E+6	3.256E+6	2.630E+6	27.21E+6
			1155	-4.034E+6	3.256E+6	2.630E+6	40.91E+6
2086	C3		714	7.023E+6	-4.458E+6	1.093E+6	52.53E+6
			1155	7.023E+6	-4.458E+6	1.093E+6	53.24E+6
2087	C3		1155	2.743E+6	8.755E+6	-3.303E+6	202.5E+6
			1176	2.743E+6	8.755E+6	-3.303E+6	128.6E+6
2088	C3		715	22.78E+6	-6.237E+6	967200.	128.8E+6
			1156	22.78E+6	-6.237E+6	967200.	129.5E+6
2089	C3		1156	1.714E+6	10.83E+6	-3.004E+6	70.64E+6
			1177	1.714E+6	10.83E+6	-3.004E+6	73.62E+6
2090	C3		1156	-2.186E+6	4.660E+6	2.717E+6	40.49E+6
			1157	-2.186E+6	4.660E+6	2.717E+6	26.08E+6
2091	C3		716	28.62E+6	-12.42E+6	389600.	180.5E+6
			1157	28.62E+6	-12.42E+6	389600.	180.8E+6
2092	C3		1157	3.221E+6	14.70E+6	-4.378E+6	91.02E+6
			1178	3.221E+6	14.70E+6	-4.378E+6	94.64E+6
2093	C3		1157	-3.493E+6	8.152E+6	4.537E+6	64.85E+6
			1158	-3.493E+6	8.152E+6	4.537E+6	55.81E+6
2094	C3		717	37.67E+6	-16.14E+6	91880.	236.3E+6
			1158	37.67E+6	-16.14E+6	91880.	236.4E+6
2095	C3		1158	4.435E+6	20.84E+6	-6.731E+6	120.0E+6
			1179	4.435E+6	20.84E+6	-6.731E+6	122.5E+6
2096	C3		1158	-4.836E+6	9.113E+6	5.968E+6	74.31E+6
			1159	-4.836E+6	9.113E+6	5.968E+6	81.39E+6
2097	C3		718	49.99E+6	-12.24E+6	7479.	275.2E+6
			1159	49.99E+6	-12.24E+6	7479.	275.3E+6
2098	C3		1159	4.928E+6	30.60E+6	-8.414E+6	168.3E+6
			1180	4.928E+6	30.60E+6	-8.414E+6	157.3E+6
2099	C3		1159	-4.800E+6	4.096E+6	4.140E+6	45.71E+6
			1160	-4.800E+6	4.096E+6	4.140E+6	77.56E+6
2100	C3		719	59.72E+6	2.499E+6	-169000.	279.2E+6
			1160	59.72E+6	2.499E+6	-169000.	280.4E+6
2101	C3		1160	3.312E+6	38.63E+6	-1.762E+6	211.4E+6
			1181	3.312E+6	38.63E+6	-1.762E+6	165.3E+6
2102	C3		1160	-1.757E+6	-6.627E+6	-2.844E+6	77.08E+6
			1161	-1.757E+6	-6.627E+6	-2.844E+6	38.67E+6
2103	C3		720	52.63E+6	19.99E+6	19780.	319.0E+6
			1161	52.63E+6	19.99E+6	19780.	319.0E+6
2104	C3		1161	779800.	32.85E+6	7.182E+6	171.4E+6
			1182	779800.	32.85E+6	7.182E+6	141.3E+6
2105	C3		1161	350700.	-14.30E+6	-7.098E+6	89.63E+6
			1162	350700.	-14.30E+6	-7.098E+6	71.55E+6
2106	C3		721	40.71E+6	30.09E+6	455000.	309.0E+6
			1162	40.71E+6	30.09E+6	455000.	308.7E+6
2107	C3		1162	-477600.	24.20E+6	9.020E+6	125.2E+6
			1183	-477600.	24.20E+6	9.020E+6	110.4E+6
2108	C3		1162	816100.	-17.09E+6	-7.720E+6	88.84E+6
			1163	816100.	-17.09E+6	-7.720E+6	83.27E+6
2109	C3		722	28.79E+6	32.36E+6	397200.	266.9E+6
			1163	28.79E+6	32.36E+6	397200.	266.6E+6
2110	C3		1163	-603800.	16.31E+6	7.660E+6	81.71E+6
			1184	-603800.	16.31E+6	7.660E+6	82.33E+6
2111	C3		1163	640900.	-16.48E+6	-6.569E+6	91.08E+6
			1164	640900.	-16.48E+6	-6.569E+6	97.24E+6
2112	C3		723	19.43E+6	29.73E+6	308600.	215.2E+6
			1164	19.43E+6	29.73E+6	308600.	215.0E+6
2113	C3		1164	-227500.	10.58E+6	5.571E+6	59.91E+6
			1185	-227500.	10.58E+6	5.571E+6	59.19E+6
2114	C3		1164	216200.	-14.26E+6	-5.034E+6	86.42E+6
			1165	216200.	-14.26E+6	-5.034E+6	102.7E+6
2115	C3		724	13.18E+6	24.82E+6	296100.	167.0E+6
			1165	13.18E+6	24.82E+6	296100.	166.8E+6
2116	C3		1165	397600.	7.030E+6	3.825E+6	52.21E+6
			1186	397600.	7.030E+6	3.825E+6	44.88E+6
2117	C3		1165	-391500.	-11.49E+6	-3.621E+6	79.26E+6
			1166	-391500.	-11.49E+6	-3.621E+6	105.6E+6
2118	C3		725	9.519E+6	18.43E+6	321800.	123.3E+6
			1166	9.519E+6	18.43E+6	321800.	123.2E+6
2119	C3		1166	1.215E+6	4.685E+6	2.221E+6	53.01E+6
			1187	1.215E+6	4.685E+6	2.221E+6	41.83E+6
2120	C3		1166	-1.167E+6	-8.066E+6	-2.336E+6	71.57E+6
			1167	-1.167E+6	-8.066E+6	-2.336E+6	104.1E+6
2121	C3		726	7.798E+6	10.09E+6	342800.	80.58E+6
			1167	7.798E+6	10.09E+6	342800.	80.45E+6
2122	C3		1167	2.188E+6	4.653E+6	756500.	66.83E+6
			1188	2.188E+6	4.653E+6	756500.	50.87E+6
2123	C3		1167	-2.090E+6	-2.827E+6	-1.070E+6	66.67E+6
			1168	-2.090E+6	-2.827E+6	-1.070E+6	90.11E+6
2124	C3		727	7.618E+6	1.189E+6	323800.	42.02E+6
			1168	7.618E+6	1.189E+6	323800.	41.81E+6
2125	C3		1168	3.297E+6	5.012E+6	-523900.	84.94E+6
			1189	3.297E+6	5.012E+6	-523900.	63.60E+6
2126	C3		1168	-3.162E+6	1.438E+6	263700.	87.53E+6
			1169	-3.162E+6	1.438E+6	263700.	75.34E+6
2127	C3		728	8.713E+6	-6.416E+6	218000.	68.50E+6
			1169	8.713E+6	-6.416E+6	218000.	68.65E+6
2128	C3		1169	4.568E+6	5.964E+6	-1.918E+6	108.5E+6
			1190	4.568E+6	5.964E+6	-1.918E+6	81.17E+6
2129	C3		1169	-4.428E+6	4.925E+6	1.699E+6	102.2E+6
			1170	-4.428E+6	4.925E+6	1.699E+6	74.19E+6
2130	C3		729	10.70E+6	-12.40E+6	-44520.	103.1E+6
			1170	10.70E+6	-12.40E+6	-44520.	103.1E+6
2131	C3		1170	6.103E+6	7.413E+6	-3.313E+6	137.8E+6
			1191	6.103E+6	7.413E+6	-3.313E+6	103.6E+6
2132	C3		1170	-6.073E+6	7.532E+6	3.190E+6	111.7E+6
			1171	-6.073E+6	7.532E+6	3.190E+6	89.15E+6
2133	C3		730	12.79E+6	-16.51E+6	-471900.	130.2E+6
			1171	12.79E+6	-16.51E+6	-471900.	129.9E+6
2134	C3		1171	8.119E+6	8.985E+6	-4.549E+6	172.1E+6
			1192	8.119E+6	8.985E+6	-4.549E+6	129.9E+6
2135	C3		1171	-8.501E+6	9.123E+6	4.501E+6	117.8E+6
			1172	-8.501E+6	9.123E+6	4.501E+6	101.8E+6
2136	C3		731	14.21E+6	-18.49E+6	-746100.	145.1E+6
			1172	14.21E+6	-18.49E+6	-746100.	144.6E+6
2137	C3		1172	10.52E+6	10.30E+6	-5.391E+6	207.7E+6
			1193	10.52E+6	10.30E+6	-5.391E+6	156.3E+6
2138	C3		1172	-11.37E+6	9.577E+6	5.138E+6	118.7E+6
			1173	-11.37E+6	9.577E+6	5.138E+6	112.2E+6
2139	C3		732	15.82E+6	-18.24E+6	-565700.	150.9E+6
			1173	15.82E+6	-18.24E+6	-565700.	150.5E+6
2140	C3		1173	11.73E+6	11.67E+6	-5.652E+6	235.6E+6
			1194	11.73E+6	11.67E+6	-5.652E+6	175.3E+6
2141	C3		1173	-11.41E+6	8.943E+6	5.021E+6	101.3E+6
			1174	-11.41E+6	8.943E+6	5.021E+6	107.1E+6
2142	C3		733	18.49E+6	-15.75E+6	-209900.	151.5E+6
			1174	18.49E+6	-15.75E+6	-209900.	151.4E+6
2143	C3		1174	9.820E+6	13.62E+6	-5.384E+6	247.7E+6
			1195	9.820E+6	13.62E+6	-5.384E+6	180.5E+6
2144	C3		1174	-7.430E+6	7.093E+6	4.498E+6	64.44E+6
			1175	-7.430E+6	7.093E+6	4.498E+6	78.28E+6
2145	C3		734	21.37E+6	-11.24E+6	527200.	144.8E+6
			1175	21.37E+6	-11.24E+6	527200.	145.1E+6
2146	C3		1175	6.624E+6	15.71E+6	-4.861E+6	242.2E+6
			1196	6.624E+6	15.71E+6	-4.861E+6	170.5E+6
2147	C3		1175	-4.789E+6	4.215E+6	3.186E+6	33.77E+6
			1176	-4.789E+6	4.215E+6	3.186E+6	50.42E+6
2148	C3		735	27.13E+6	-5.728E+6	1.922E+6	147.6E+6
			1176	27.13E+6	-5.728E+6	1.922E+6	148.9E+6
2149	C3		1176	3.353E+6	19.64E+6	-4.407E+6	241.9E+6
			1197	3.353E+6	19.64E+6	-4.407E+6	168.0E+6
2150	C3		736	19.11E+6	-8.083E+6	1.605E+6	119.9E+6
			1177	19.11E+6	-8.083E+6	1.605E+6	121.0E+6
2151	C3		1177	1.760E+6	8.123E+6	-2.897E+6	45.48E+6
			1198	1.760E+6	8.123E+6	-2.897E+6	56.34E+6
2152	C3		1177	-2.395E+6	6.044E+6	2.780E+6	51.37E+6
			1178	-2.395E+6	6.044E+6	2.780E+6	30.53E+6
2153	C3		737	25.64E+6	-18.03E+6	957200.	190.8E+6
			1178	25.64E+6	-18.03E+6	957200.	191.5E+6
2154	C3		1178	3.182E+6	11.73E+6	-3.997E+6	59.97E+6
			1199	3.182E+6	11.73E+6	-3.997E+6	76.22E+6
2155	C3		1178	-3.617E+6	12.34E+6	5.091E+6	92.47E+6
			1179	-3.617E+6	12.34E+6	5.091E+6	72.38E+6
2156	C3		738	37.10E+6	-28.52E+6	776500.	286.0E+6
			1179	37.10E+6	-28.52E+6	776500.	286.6E+6
2157	C3		1179	4.425E+6	18.07E+6	-7.028E+6	100.3E+6
			1200	4.425E+6	18.07E+6	-7.028E+6	119.4E+6
2158	C3		1179	-4.935E+6	18.51E+6	8.910E+6	130.2E+6
			1180	-4.935E+6	18.51E+6	8.910E+6	127.6E+6
2159	C3		739	58.41E+6	-30.76E+6	810800.	390.0E+6
			1180	58.41E+6	-30.76E+6	810800.	389.6E+6
2160	C3		1180	5.116E+6	34.15E+6	-12.73E+6	185.4E+6
			1201	5.116E+6	34.15E+6	-12.73E+6	217.4E+6
2161	C3		1180	-5.095E+6	18.31E+6	10.72E+6	113.8E+6
			1181	-5.095E+6	18.31E+6	10.72E+6	173.2E+6
2162	C3		740	89.55E+6	-1.793E+6	286500.	419.9E+6
			1181	89.55E+6	-1.793E+6	286500.	409.9E+6
2163	C3		1181	3.729E+6	69.48E+6	-5.458E+6	336.0E+6
			1202	3.729E+6	69.48E+6	-5.458E+6	397.1E+6
2164	C3		1181	-2.006E+6	-16.02E+6	-5.320E+6	160.4E+6
			1182	-2.006E+6	-16.02E+6	-5.320E+6	78.20E+6
2165	C3		741	71.95E+6	36.23E+6	126700.	473.0E+6
			1182	71.95E+6	36.23E+6	126700.	472.1E+6
2166	C3		1182	1.071E+6	46.20E+6	9.288E+6	240.1E+6
			1203	1.071E+6	46.20E+6	9.288E+6	251.2E+6
2167	C3		1182	287500.	-25.62E+6	-11.13E+6	158.1E+6
			1183	287500.	-25.62E+6	-11.13E+6	131.2E+6
2168	C3		742	49.14E+6	48.78E+6	563900.	426.2E+6
			1183	49.14E+6	48.78E+6	563900.	426.0E+6
2169	C3		1183	-135400.	28.47E+6	11.99E+6	150.3E+6
			1204	-135400.	28.47E+6	11.99E+6	164.6E+6
2170	C3		1183	537800.	-26.34E+6	-9.989E+6	125.7E+6
			1184	537800.	-26.34E+6	-9.989E+6	131.0E+6
2171	C3		743	30.57E+6	46.83E+6	464200.	337.9E+6
			1184	30.57E+6	46.83E+6	464200.	337.6E+6
2172	C3		1184	-35220.	15.81E+6	7.980E+6	79.28E+6
			1205	-35220.	15.81E+6	7.980E+6	94.56E+6
2173	C3		1184	135800.	-22.52E+6	-6.893E+6	115.1E+6
			1185	135800.	-22.52E+6	-6.893E+6	132.8E+6
2174	C3		744	19.30E+6	39.19E+6	419500.	256.5E+6
			1185	19.30E+6	39.19E+6	419500.	256.2E+6
2175	C3		1185	563500.	9.319E+6	4.496E+6	43.67E+6
			1206	563500.	9.319E+6	4.496E+6	51.62E+6
2176	C3		1185	-478800.	-17.91E+6	-4.447E+6	104.0E+6
			1186	-478800.	-17.91E+6	-4.447E+6	132.8E+6
2177	C3		745	13.42E+6	30.89E+6	470600.	195.0E+6
			1186	13.42E+6	30.89E+6	470600.	194.8E+6
2178	C3		1186	1.380E+6	6.630E+6	2.313E+6	44.60E+6
			1207	1.380E+6	6.630E+6	2.313E+6	43.39E+6
2179	C3		1186	-1.270E+6	-14.22E+6	-2.719E+6	100.5E+6
			1187	-1.270E+6	-14.22E+6	-2.719E+6	134.6E+6
2180	C3		746	10.84E+6	22.00E+6	542600.	146.1E+6
			1187	10.84E+6	22.00E+6	542600.	145.8E+6
2181	C3		1187	2.366E+6	6.257E+6	883200.	57.16E+6
			1208	2.366E+6	6.257E+6	883200.	50.25E+6
2182	C3		1187	-2.237E+6	-8.957E+6	-1.293E+6	87.43E+6
			1188	-2.237E+6	-8.957E+6	-1.293E+6	127.0E+6
2183	C3		747	10.40E+6	11.80E+6	587300.	99.40E+6
			1188	10.40E+6	11.80E+6	587300.	99.01E+6
2184	C3		1188	3.511E+6	5.800E+6	-406900.	70.34E+6
			1209	3.511E+6	5.800E+6	-406900.	58.34E+6
2185	C3		1188	-3.356E+6	-3.447E+6	95230.	84.52E+6
			1189	-3.356E+6	-3.447E+6	95230.	113.2E+6
2186	C3		748	11.58E+6	1.587E+6	573300.	61.55E+6
			1189	11.58E+6	1.587E+6	573300.	61.17E+6
2187	C3		1189	4.810E+6	6.629E+6	-1.912E+6	90.52E+6
			1210	4.810E+6	6.629E+6	-1.912E+6	73.82E+6
2188	C3		1189	-4.627E+6	1.601E+6	1.579E+6	109.9E+6
			1190	-4.627E+6	1.601E+6	1.579E+6	96.54E+6
2189	C3		749	14.12E+6	-7.579E+6	460800.	97.24E+6
			1190	14.12E+6	-7.579E+6	460800.	97.54E+6
2190	C3		1190	6.276E+6	8.283E+6	-3.448E+6	116.2E+6
			1211	6.276E+6	8.283E+6	-3.448E+6	94.67E+6
2191	C3		1190	-6.094E+6	5.949E+6	3.209E+6	128.4E+6
			1191	-6.094E+6	5.949E+6	3.209E+6	94.06E+6
2192	C3		750	17.78E+6	-15.23E+6	197500.	146.0E+6
			1191	17.78E+6	-15.23E+6	197500.	146.2E+6
2193	C3		1191	7.999E+6	10.59E+6	-5.079E+6	147.7E+6
			1212	7.999E+6	10.59E+6	-5.079E+6	120.6E+6
2194	C3		1191	-7.919E+6	9.438E+6	4.925E+6	140.6E+6
			1192	-7.919E+6	9.438E+6	4.925E+6	112.8E+6
2195	C3		751	22.00E+6	-20.84E+6	-201000.	188.8E+6
			1192	22.00E+6	-20.84E+6	-201000.	188.7E+6
2196	C3		1192	10.15E+6	13.38E+6	-6.668E+6	185.4E+6
			1213	10.15E+6	13.38E+6	-6.668E+6	151.1E+6
2197	C3		1192	-10.41E+6	11.71E+6	6.400E+6	146.8E+6
			1193	-10.41E+6	11.71E+6	6.400E+6	127.9E+6
2198	C3		752	26.15E+6	-23.65E+6	-429800.	219.1E+6
			1193	26.15E+6	-23.65E+6	-429800.	218.8E+6
2199	C3		1193	12.56E+6	16.36E+6	-7.792E+6	226.8E+6
			1214	12.56E+6	16.36E+6	-7.792E+6	182.2E+6
2200	C3		1193	-13.15E+6	12.32E+6	6.944E+6	143.7E+6
			1194	-13.15E+6	12.32E+6	6.944E+6	137.2E+6
2201	C3		753	30.60E+6	-23.14E+6	-93500.	236.2E+6
			1194	30.60E+6	-23.14E+6	-93500.	236.1E+6
2202	C3		1194	13.65E+6	19.43E+6	-7.838E+6	262.7E+6
			1215	13.65E+6	19.43E+6	-7.838E+6	205.7E+6
2203	C3		1194	-13.04E+6	11.24E+6	6.279E+6	120.1E+6
			1195	-13.04E+6	11.24E+6	6.279E+6	128.6E+6
2204	C3		754	36.15E+6	-19.40E+6	376200.	244.6E+6
			1195	36.15E+6	-19.40E+6	376200.	244.9E+6
2205	C3		1195	11.29E+6	22.96E+6	-6.810E+6	280.4E+6
			1216	11.29E+6	22.96E+6	-6.810E+6	214.7E+6
2206	C3		1195	-8.262E+6	8.582E+6	5.291E+6	74.20E+6
			1196	-8.262E+6	8.582E+6	5.291E+6	91.50E+6
2207	C3		755	40.86E+6	-13.29E+6	1.197E+6	240.0E+6
			1196	40.86E+6	-13.29E+6	1.197E+6	240.8E+6
2208	C3		1196	7.722E+6	26.11E+6	-5.630E+6	273.9E+6
			1217	7.722E+6	26.11E+6	-5.630E+6	206.1E+6
2209	C3		1196	-5.743E+6	4.853E+6	3.588E+6	39.65E+6
			1197	-5.743E+6	4.853E+6	3.588E+6	59.25E+6
2210	C3		756	48.69E+6	-6.517E+6	2.852E+6	247.6E+6
			1197	48.69E+6	-6.517E+6	2.852E+6	249.5E+6
2211	C3		1197	4.093E+6	31.16E+6	-5.180E+6	273.5E+6
			1218	4.093E+6	31.16E+6	-5.180E+6	207.5E+6
2212	C3		757	13.54E+6	-8.249E+6	1.394E+6	95.83E+6
			1198	13.54E+6	-8.249E+6	1.394E+6	96.77E+6
2213	C3		1198	784100.	5.211E+6	-843600.	21.60E+6
			1219	784100.	5.211E+6	-843600.	32.81E+6
2214	C3		1198	-1.825E+6	6.246E+6	1.529E+6	51.25E+6
			1199	-1.825E+6	6.246E+6	1.529E+6	26.65E+6
2215	C3		758	17.67E+6	-21.00E+6	1.006E+6	168.9E+6
			1199	17.67E+6	-21.00E+6	1.006E+6	169.6E+6
2216	C3		1199	1.869E+6	6.449E+6	-1.144E+6	32.85E+6
			1220	1.869E+6	6.449E+6	-1.144E+6	54.74E+6
2217	C3		1199	-2.913E+6	14.83E+6	3.016E+6	106.9E+6
			1200	-2.913E+6	14.83E+6	3.016E+6	74.26E+6
2218	C3		759	25.58E+6	-39.41E+6	1.071E+6	283.4E+6
			1200	25.58E+6	-39.41E+6	1.071E+6	284.3E+6
2219	C3		1200	2.801E+6	9.269E+6	-1.897E+6	52.16E+6
			1221	2.801E+6	9.269E+6	-1.897E+6	95.56E+6
2220	C3		1200	-4.032E+6	27.27E+6	5.293E+6	181.1E+6
			1201	-4.032E+6	27.27E+6	5.293E+6	154.2E+6
2221	C3		760	39.88E+6	-58.33E+6	1.550E+6	430.6E+6
			1201	39.88E+6	-58.33E+6	1.550E+6	428.0E+6
2222	C3		1201	3.430E+6	10.98E+6	1.674E+6	62.13E+6
			1222	3.430E+6	10.98E+6	1.674E+6	147.0E+6
2223	C3		1201	-4.225E+6	51.04E+6	5.491E+6	252.5E+6
			1202	-4.225E+6	51.04E+6	5.491E+6	347.8E+6
2224	C3		761	50.84E+6	-16.42E+6	1.502E+6	360.0E+6
			1202	50.84E+6	-16.42E+6	1.502E+6	373.5E+6
2225	C3		1202	3.737E+6	-7.692E+6	-8.953E+6	179.4E+6
			1223	3.737E+6	-7.692E+6	-8.953E+6	116.1E+6
2226	C3		1202	-3.047E+6	-31.51E+6	7.398E+6	289.1E+6
			1203	-3.047E+6	-31.51E+6	7.398E+6	144.3E+6
2227	C3		762	76.34E+6	61.56E+6	966400.	610.5E+6
			1203	76.34E+6	61.56E+6	966400.	598.1E+6
2228	C3		1203	3.036E+6	55.27E+6	-3.817E+6	250.2E+6
			1224	3.036E+6	55.27E+6	-3.817E+6	399.7E+6
2229	C3		1203	-835600.	-47.45E+6	-13.25E+6	279.4E+6
			1204	-835600.	-47.45E+6	-13.25E+6	231.4E+6
2230	C3		763	44.53E+6	77.66E+6	1.198E+6	534.2E+6
			1204	44.53E+6	77.66E+6	1.198E+6	531.9E+6
2231	C3		1204	1.965E+6	23.78E+6	9.723E+6	113.9E+6
			1225	1.965E+6	23.78E+6	9.723E+6	202.8E+6
2232	C3		1204	-824100.	-39.16E+6	-10.10E+6	178.0E+6
			1205	-824100.	-39.16E+6	-10.10E+6	196.0E+6
2233	C3		764	23.21E+6	64.48E+6	955200.	385.5E+6
			1205	23.21E+6	64.48E+6	955200.	385.0E+6
2234	C3		1205	2.172E+6	8.627E+6	4.144E+6	49.45E+6
			1226	2.172E+6	8.627E+6	4.144E+6	88.97E+6
2235	C3		1205	-1.321E+6	-28.54E+6	-5.227E+6	141.0E+6
			1206	-1.321E+6	-28.54E+6	-5.227E+6	179.9E+6
2236	C3		765	14.34E+6	48.59E+6	896500.	278.1E+6
			1206	14.34E+6	48.59E+6	896500.	277.5E+6
2237	C3		1206	2.747E+6	5.314E+6	1.434E+6	34.30E+6
			1227	2.747E+6	5.314E+6	1.434E+6	50.06E+6
2238	C3		1206	-1.977E+6	-21.22E+6	-2.830E+6	129.9E+6
			1207	-1.977E+6	-21.22E+6	-2.830E+6	169.0E+6
2239	C3		766	11.07E+6	36.09E+6	938600.	208.8E+6
			1207	11.07E+6	36.09E+6	938600.	208.1E+6
2240	C3		1207	3.521E+6	4.570E+6	371600.	36.63E+6
			1228	3.521E+6	4.570E+6	371600.	39.63E+6
2241	C3		1207	-2.825E+6	-15.81E+6	-1.399E+6	122.9E+6
			1208	-2.825E+6	-15.81E+6	-1.399E+6	163.8E+6
2242	C3		767	10.48E+6	25.30E+6	984700.	158.2E+6
			1208	10.48E+6	25.30E+6	984700.	157.6E+6
2243	C3		1208	4.506E+6	4.292E+6	-728200.	50.87E+6
			1229	4.506E+6	4.292E+6	-728200.	47.34E+6
2244	C3		1208	-3.876E+6	-10.69E+6	-150300.	112.5E+6
			1209	-3.876E+6	-10.69E+6	-150300.	158.2E+6
2245	C3		768	11.55E+6	13.81E+6	993600.	113.2E+6
			1209	11.55E+6	13.81E+6	993600.	112.6E+6
2246	C3		1209	5.685E+6	5.816E+6	-1.939E+6	72.23E+6
			1230	5.685E+6	5.816E+6	-1.939E+6	64.16E+6
2247	C3		1209	-5.100E+6	-3.994E+6	1.180E+6	108.0E+6
			1210	-5.100E+6	-3.994E+6	1.180E+6	141.0E+6
2248	C3		769	13.98E+6	1.929E+6	942900.	73.95E+6
			1210	13.98E+6	1.929E+6	942900.	73.32E+6
2249	C3		1210	7.033E+6	7.453E+6	-3.161E+6	94.41E+6
			1231	7.033E+6	7.453E+6	-3.161E+6	82.74E+6
2250	C3		1210	-6.496E+6	1.838E+6	2.706E+6	137.0E+6
			1211	-6.496E+6	1.838E+6	2.706E+6	121.8E+6
2251	C3		770	17.70E+6	-8.999E+6	799100.	119.0E+6
			1211	17.70E+6	-8.999E+6	799100.	119.5E+6
2252	C3		1211	8.578E+6	9.613E+6	-4.690E+6	120.0E+6
			1232	8.578E+6	9.613E+6	-4.690E+6	105.3E+6
2253	C3		1211	-8.106E+6	7.176E+6	4.499E+6	159.5E+6
			1212	-8.106E+6	7.176E+6	4.499E+6	117.7E+6
2254	C3		771	22.78E+6	-18.78E+6	521900.	183.0E+6
			1212	22.78E+6	-18.78E+6	521900.	183.4E+6
2255	C3		1212	10.40E+6	12.54E+6	-6.520E+6	151.0E+6
			1233	10.40E+6	12.54E+6	-6.520E+6	133.2E+6
2256	C3		1212	-10.08E+6	11.90E+6	6.570E+6	175.6E+6
			1213	-10.08E+6	11.90E+6	6.570E+6	140.9E+6
2257	C3		772	29.25E+6	-26.69E+6	135700.	245.5E+6
			1213	29.25E+6	-26.69E+6	135700.	245.6E+6
2258	C3		1213	12.63E+6	16.54E+6	-8.690E+6	189.9E+6
			1234	12.63E+6	16.54E+6	-8.690E+6	167.8E+6
2259	C3		1213	-12.64E+6	15.41E+6	8.610E+6	183.5E+6
			1214	-12.64E+6	15.41E+6	8.610E+6	160.4E+6
2260	C3		773	37.22E+6	-31.06E+6	-68220.	299.2E+6
			1214	37.22E+6	-31.06E+6	-68220.	299.1E+6
2261	C3		1214	15.03E+6	21.99E+6	-10.82E+6	238.3E+6
			1235	15.03E+6	21.99E+6	-10.82E+6	207.1E+6
2262	C3		1214	-15.28E+6	16.44E+6	9.482E+6	175.6E+6
			1215	-15.28E+6	16.44E+6	9.482E+6	170.4E+6
2263	C3		774	46.69E+6	-29.88E+6	427500.	335.6E+6
			1215	46.69E+6	-29.88E+6	427500.	335.8E+6
2264	C3		1215	16.00E+6	28.40E+6	-11.12E+6	288.8E+6
			1236	16.00E+6	28.40E+6	-11.12E+6	238.8E+6
2265	C3		1215	-15.03E+6	14.10E+6	7.858E+6	139.9E+6
			1216	-15.03E+6	14.10E+6	7.858E+6	154.8E+6
2266	C3		775	56.56E+6	-23.17E+6	949700.	351.1E+6
			1216	56.56E+6	-23.17E+6	949700.	351.6E+6
2267	C3		1216	13.02E+6	33.83E+6	-7.890E+6	315.1E+6
			1237	13.02E+6	33.83E+6	-7.890E+6	246.6E+6
2268	C3		1216	-9.185E+6	9.705E+6	5.610E+6	80.15E+6
			1217	-9.185E+6	9.705E+6	5.610E+6	103.7E+6
2269	C3		776	62.02E+6	-13.99E+6	1.809E+6	337.6E+6
			1217	62.02E+6	-13.99E+6	1.809E+6	338.8E+6
2270	C3		1217	8.959E+6	37.86E+6	-4.791E+6	300.2E+6
			1238	8.959E+6	37.86E+6	-4.791E+6	242.0E+6
2271	C3		1217	-6.878E+6	4.567E+6	3.172E+6	42.10E+6
			1218	-6.878E+6	4.567E+6	3.172E+6	64.09E+6
2272	C3		777	70.32E+6	-6.087E+6	3.654E+6	343.4E+6
			1218	70.32E+6	-6.087E+6	3.654E+6	345.8E+6
2273	C3		1218	4.934E+6	42.30E+6	-4.796E+6	290.4E+6
			1239	4.934E+6	42.30E+6	-4.796E+6	241.8E+6
2274	C3		778	7.720E+6	-7.418E+6	-328700.	67.23E+6
			1219	7.720E+6	-7.418E+6	-328700.	66.99E+6
2275	C3		1219	662100.	2.832E+6	2.514E+6	13.50E+6
			1240	662100.	2.832E+6	2.514E+6	26.62E+6
2276	C3		1219	-1.278E+6	5.695E+6	-898100.	46.36E+6
			1220	-1.278E+6	5.695E+6	-898100.	22.53E+6
2277	C3		779	6.559E+6	-20.68E+6	6256.	120.6E+6
			1220	6.559E+6	-20.68E+6	6256.	120.9E+6
2278	C3		1220	1.487E+6	231400.	3.454E+6	28.43E+6
			1241	1.487E+6	231400.	3.454E+6	30.23E+6
2279	C3		1220	-2.066E+6	15.44E+6	-1.657E+6	106.4E+6
			1221	-2.066E+6	15.44E+6	-1.657E+6	73.76E+6
2280	C3		780	4.586E+6	-41.22E+6	244000.	206.2E+6
			1221	4.586E+6	-41.22E+6	244000.	205.1E+6
2281	C3		1221	2.263E+6	-4.778E+6	5.791E+6	76.31E+6
			1242	2.263E+6	-4.778E+6	5.791E+6	37.28E+6
2282	C3		1221	-2.888E+6	31.71E+6	-3.010E+6	186.3E+6
			1222	-2.888E+6	31.71E+6	-3.010E+6	181.5E+6
2283	C3		781	-1.232E+6	-47.66E+6	794400.	237.7E+6
			1222	-1.232E+6	-47.66E+6	794400.	233.7E+6
2284	C3		1222	3.228E+6	-12.99E+6	4.770E+6	148.8E+6
			1243	3.228E+6	-12.99E+6	4.770E+6	76.84E+6
2285	C3		1222	-3.567E+6	24.42E+6	-4.237E+6	148.7E+6
			1223	-3.567E+6	24.42E+6	-4.237E+6	200.7E+6
2286	C3		782	-5.876E+6	-29.53E+6	348200.	159.9E+6
			1223	-5.876E+6	-29.53E+6	348200.	154.3E+6
2287	C3		1223	3.944E+6	-5.486E+6	10.54E+6	148.6E+6
			1244	3.944E+6	-5.486E+6	10.54E+6	102.1E+6
2288	C3		1223	-3.941E+6	27.22E+6	2.163E+6	115.5E+6
			1224	-3.941E+6	27.22E+6	2.163E+6	290.4E+6
2289	C3		783	-890600.	47.74E+6	76170.	298.4E+6
			1224	-890600.	47.74E+6	76170.	338.4E+6
2290	C3		1224	5.331E+6	-57.46E+6	433900.	411.8E+6
			1245	5.331E+6	-57.46E+6	433900.	272.9E+6
2291	C3		1224	-4.245E+6	-87.25E+6	1.037E+6	504.9E+6
			1225	-4.245E+6	-87.25E+6	1.037E+6	400.1E+6
2292	C3		784	3.372E+6	111.7E+6	458300.	529.0E+6
			1225	3.372E+6	111.7E+6	458300.	515.5E+6
2293	C3		1225	6.888E+6	-20.58E+6	-10.72E+6	205.5E+6
			1246	6.888E+6	-20.58E+6	-10.72E+6	127.4E+6
2294	C3		1225	-4.316E+6	-49.53E+6	-131100.	219.3E+6
			1226	-4.316E+6	-49.53E+6	-131100.	266.8E+6
2295	C3		785	4.669E+6	78.30E+6	733100.	371.5E+6
			1226	4.669E+6	78.30E+6	733100.	372.5E+6
2296	C3		1226	7.011E+6	-3.956E+6	-4.220E+6	91.70E+6
			1247	7.011E+6	-3.956E+6	-4.220E+6	59.18E+6
2297	C3		1226	-4.442E+6	-32.05E+6	-500200.	171.3E+6
			1227	-4.442E+6	-32.05E+6	-500200.	221.2E+6
2298	C3		786	5.564E+6	55.63E+6	971700.	274.6E+6
			1227	5.564E+6	55.63E+6	971700.	273.8E+6
2299	C3		1227	6.989E+6	256200.	-1.739E+6	50.13E+6
			1248	6.989E+6	256200.	-1.739E+6	50.17E+6
2300	C3		1227	-4.767E+6	-23.80E+6	-367200.	161.3E+6
			1228	-4.767E+6	-23.80E+6	-367200.	204.7E+6
2301	C3		787	6.868E+6	41.05E+6	1.140E+6	214.1E+6
			1228	6.868E+6	41.05E+6	1.140E+6	213.4E+6
2302	C3		1228	7.212E+6	2.306E+6	-1.573E+6	39.93E+6
			1249	7.212E+6	2.306E+6	-1.573E+6	45.33E+6
2303	C3		1228	-5.366E+6	-18.23E+6	130700.	154.4E+6
			1229	-5.366E+6	-18.23E+6	130700.	200.0E+6
2304	C3		788	8.787E+6	28.74E+6	1.217E+6	168.0E+6
			1229	8.787E+6	28.74E+6	1.217E+6	167.3E+6
2305	C3		1229	7.748E+6	4.519E+6	-1.904E+6	59.62E+6
			1250	7.748E+6	4.519E+6	-1.904E+6	60.88E+6
2306	C3		1229	-6.254E+6	-11.62E+6	954300.	137.9E+6
			1230	-6.254E+6	-11.62E+6	954300.	189.0E+6
2307	C3		789	11.38E+6	15.83E+6	1.211E+6	121.5E+6
			1230	11.38E+6	15.83E+6	1.211E+6	120.7E+6
2308	C3		1230	8.589E+6	5.631E+6	-2.621E+6	75.87E+6
			1251	8.589E+6	5.631E+6	-2.621E+6	73.65E+6
2309	C3		1230	-7.376E+6	-4.779E+6	2.082E+6	132.4E+6
			1231	-7.376E+6	-4.779E+6	2.082E+6	171.5E+6
2310	C3		790	14.80E+6	2.714E+6	1.126E+6	80.87E+6
			1231	14.80E+6	2.714E+6	1.126E+6	80.14E+6
2311	C3		1231	9.713E+6	7.475E+6	-3.814E+6	95.49E+6
			1252	9.713E+6	7.475E+6	-3.814E+6	91.25E+6
2312	C3		1231	-8.731E+6	1.865E+6	3.526E+6	165.3E+6
			1232	-8.731E+6	1.865E+6	3.526E+6	149.7E+6
2313	C3		791	19.22E+6	-10.08E+6	944500.	130.3E+6
			1232	19.22E+6	-10.08E+6	944500.	130.9E+6
2314	C3		1232	11.12E+6	9.838E+6	-5.216E+6	118.2E+6
			1253	11.12E+6	9.838E+6	-5.216E+6	112.8E+6
2315	C3		1232	-10.35E+6	8.306E+6	5.349E+6	192.5E+6
			1233	-10.35E+6	8.306E+6	5.349E+6	142.0E+6
2316	C3		792	24.99E+6	-22.53E+6	645100.	208.8E+6
			1233	24.99E+6	-22.53E+6	645100.	209.3E+6
2317	C3		1233	12.87E+6	12.85E+6	-6.986E+6	144.8E+6
			1254	12.87E+6	12.85E+6	-6.986E+6	139.4E+6
2318	C3		1233	-12.35E+6	14.66E+6	7.708E+6	214.8E+6
			1234	-12.35E+6	14.66E+6	7.708E+6	170.1E+6
2319	C3		793	32.93E+6	-34.25E+6	263400.	294.2E+6
			1234	32.93E+6	-34.25E+6	263400.	294.4E+6
2320	C3		1234	15.06E+6	17.21E+6	-9.499E+6	178.6E+6
			1255	15.06E+6	17.21E+6	-9.499E+6	174.5E+6
2321	C3		1234	-14.92E+6	20.66E+6	10.74E+6	230.0E+6
			1235	-14.92E+6	20.66E+6	10.74E+6	197.9E+6
2322	C3		794	45.09E+6	-42.85E+6	75610.	384.3E+6
			1235	45.09E+6	-42.85E+6	75610.	384.4E+6
2323	C3		1235	17.40E+6	25.13E+6	-13.50E+6	227.7E+6
			1256	17.40E+6	25.13E+6	-13.50E+6	224.6E+6
2324	C3		1235	-17.48E+6	24.20E+6	13.48E+6	223.2E+6
			1236	-17.48E+6	24.20E+6	13.48E+6	218.9E+6
2325	C3		795	63.94E+6	-42.04E+6	744600.	463.0E+6
			1236	63.94E+6	-42.04E+6	744600.	463.7E+6
2326	C3		1236	18.21E+6	39.75E+6	-16.85E+6	305.2E+6
			1257	18.21E+6	39.75E+6	-16.85E+6	289.0E+6
2327	C3		1236	-17.07E+6	19.73E+6	11.31E+6	163.2E+6
			1237	-17.07E+6	19.73E+6	11.31E+6	196.1E+6
2328	C3		796	83.56E+6	-27.24E+6	1.199E+6	486.5E+6
			1237	83.56E+6	-27.24E+6	1.199E+6	489.2E+6
2329	C3		1237	14.34E+6	53.48E+6	-7.534E+6	370.8E+6
			1258	14.34E+6	53.48E+6	-7.534E+6	311.0E+6
2330	C3		1237	-9.825E+6	8.585E+6	3.162E+6	68.03E+6
			1238	-9.825E+6	8.585E+6	3.162E+6	105.1E+6
2331	C3		797	83.13E+6	-10.70E+6	1.936E+6	418.9E+6
			1238	83.13E+6	-10.70E+6	1.936E+6	420.6E+6
2332	C3		1238	9.644E+6	51.33E+6	456000.	305.9E+6
			1259	9.644E+6	51.33E+6	456000.	290.1E+6
2333	C3		1238	-7.850E+6	2.102E+6	1.177E+6	35.21E+6
			1239	-7.850E+6	2.102E+6	1.177E+6	56.07E+6
2334	C3		798	88.21E+6	-3.085E+6	3.704E+6	411.4E+6
			1239	88.21E+6	-3.085E+6	3.704E+6	414.9E+6
2335	C3		1239	5.558E+6	51.99E+6	-2.971E+6	277.9E+6
			1260	5.558E+6	51.99E+6	-2.971E+6	276.2E+6
2336	C3		799	2.460E+6	-7.533E+6	-1.888E+6	46.27E+6
			1240	2.460E+6	-7.533E+6	-1.888E+6	45.03E+6
2337	C3		1240	-407800.	423900.	4.089E+6	13.94E+6
			1261	-407800.	423900.	4.089E+6	14.05E+6
2338	C3		1240	-530700.	5.740E+6	-3.061E+6	40.83E+6
			1241	-530700.	5.740E+6	-3.061E+6	24.10E+6
2339	C3		800	-3.330E+6	-18.56E+6	-891300.	98.07E+6
			1241	-3.330E+6	-18.56E+6	-891300.	98.70E+6
2340	C3		1241	-95570.	-3.845E+6	5.438E+6	34.84E+6
			1262	-95570.	-3.845E+6	5.438E+6	24.29E+6
2341	C3		1241	-1.040E+6	13.16E+6	-5.518E+6	84.80E+6
			1242	-1.040E+6	13.16E+6	-5.518E+6	66.36E+6
2342	C3		801	-12.92E+6	-32.67E+6	-485200.	200.5E+6
			1242	-12.92E+6	-32.67E+6	-485200.	200.9E+6
2343	C3		1242	465900.	-9.962E+6	8.277E+6	76.14E+6
			1263	465900.	-9.962E+6	8.277E+6	57.70E+6
2344	C3		1242	-1.702E+6	21.82E+6	-8.823E+6	133.8E+6
			1243	-1.702E+6	21.82E+6	-8.823E+6	128.3E+6
2345	C3		802	-28.86E+6	-43.32E+6	-360900.	314.6E+6
			1243	-28.86E+6	-43.32E+6	-360900.	314.9E+6
2346	C3		1243	1.284E+6	-22.04E+6	12.31E+6	148.7E+6
			1264	1.284E+6	-22.04E+6	12.31E+6	124.3E+6
2347	C3		1243	-2.740E+6	35.02E+6	-8.726E+6	171.3E+6
			1244	-2.740E+6	35.02E+6	-8.726E+6	252.1E+6
2348	C3		803	-42.24E+6	-14.03E+6	-1.005E+6	291.2E+6
			1244	-42.24E+6	-14.03E+6	-1.005E+6	289.1E+6
2349	C3		1244	2.956E+6	-46.58E+6	7.151E+6	277.4E+6
			1265	2.956E+6	-46.58E+6	7.151E+6	246.7E+6
2350	C3		1244	-4.089E+6	-18.34E+6	-8.275E+6	213.6E+6
			1245	-4.089E+6	-18.34E+6	-8.275E+6	82.58E+6
2351	C3		804	-66.85E+6	53.34E+6	-887400.	531.9E+6
			1245	-66.85E+6	53.34E+6	-887400.	521.6E+6
2352	C3		1245	5.599E+6	-35.22E+6	-5.533E+6	206.6E+6
			1266	5.599E+6	-35.22E+6	-5.533E+6	226.9E+6
2353	C3		1245	-6.831E+6	-45.74E+6	12.76E+6	283.7E+6
			1246	-6.831E+6	-45.74E+6	12.76E+6	238.3E+6
2354	C3		805	-34.66E+6	77.77E+6	-494100.	493.0E+6
			1246	-34.66E+6	77.77E+6	-494100.	491.1E+6
2355	C3		1246	7.237E+6	-22.00E+6	-10.31E+6	158.1E+6
			1267	7.237E+6	-22.00E+6	-10.31E+6	158.2E+6
2356	C3		1246	-7.040E+6	-40.86E+6	9.035E+6	217.7E+6
			1247	-7.040E+6	-40.86E+6	9.035E+6	229.9E+6
2357	C3		806	-12.88E+6	68.53E+6	277700.	360.9E+6
			1247	-12.88E+6	68.53E+6	277700.	361.3E+6
2358	C3		1247	7.495E+6	-10.17E+6	-6.984E+6	99.41E+6
			1268	7.495E+6	-10.17E+6	-6.984E+6	90.89E+6
2359	C3		1247	-6.775E+6	-31.19E+6	3.916E+6	188.8E+6
			1248	-6.775E+6	-31.19E+6	3.916E+6	224.9E+6
2360	C3		807	-2.967E+6	54.01E+6	812400.	256.4E+6
			1248	-2.967E+6	54.01E+6	812400.	256.9E+6
2361	C3		1248	7.419E+6	-3.495E+6	-4.048E+6	59.51E+6
			1269	7.419E+6	-3.495E+6	-4.048E+6	53.80E+6
2362	C3		1248	-6.731E+6	-24.13E+6	1.876E+6	177.3E+6
			1249	-6.731E+6	-24.13E+6	1.876E+6	218.7E+6
2363	C3		808	2.470E+6	41.66E+6	1.097E+6	199.4E+6
			1249	2.470E+6	41.66E+6	1.097E+6	198.7E+6
2364	C3		1249	7.524E+6	60010.	-2.777E+6	37.07E+6
			1270	7.524E+6	60010.	-2.777E+6	39.90E+6
2365	C3		1249	-7.029E+6	-18.53E+6	1.439E+6	169.4E+6
			1250	-7.029E+6	-18.53E+6	1.439E+6	215.9E+6
2366	C3		809	6.501E+6	30.15E+6	1.182E+6	163.7E+6
			1250	6.501E+6	30.15E+6	1.182E+6	163.0E+6
2367	C3		1250	7.952E+6	1.972E+6	-2.708E+6	44.43E+6
			1271	7.952E+6	1.972E+6	-2.708E+6	51.34E+6
2368	C3		1250	-7.689E+6	-12.83E+6	1.810E+6	156.8E+6
			1251	-7.689E+6	-12.83E+6	1.810E+6	210.8E+6
2369	C3		810	10.20E+6	17.12E+6	1.119E+6	122.1E+6
			1251	10.20E+6	17.12E+6	1.119E+6	121.5E+6
2370	C3		1251	8.689E+6	4.648E+6	-3.223E+6	63.55E+6
			1272	8.689E+6	4.648E+6	-3.223E+6	69.16E+6
2371	C3		1251	-8.631E+6	-5.132E+6	2.686E+6	150.4E+6
			1252	-8.631E+6	-5.132E+6	2.686E+6	192.0E+6
2372	C3		811	14.13E+6	2.816E+6	939000.	78.16E+6
			1252	14.13E+6	2.816E+6	939000.	77.54E+6
2373	C3		1252	9.694E+6	6.817E+6	-3.934E+6	81.12E+6
			1273	9.694E+6	6.817E+6	-3.934E+6	86.52E+6
2374	C3		1252	-9.851E+6	2.182E+6	3.952E+6	187.1E+6
			1253	-9.851E+6	2.182E+6	3.952E+6	168.7E+6
2375	C3		812	18.60E+6	-11.69E+6	635700.	134.4E+6
			1253	18.60E+6	-11.69E+6	635700.	134.8E+6
2376	C3		1253	10.99E+6	9.034E+6	-4.977E+6	99.45E+6
			1274	10.99E+6	9.034E+6	-4.977E+6	105.9E+6
2377	C3		1253	-11.37E+6	9.652E+6	5.590E+6	219.6E+6
			1254	-11.37E+6	9.652E+6	5.590E+6	160.3E+6
2378	C3		813	23.95E+6	-26.88E+6	201500.	223.3E+6
			1254	23.95E+6	-26.88E+6	201500.	223.4E+6
2379	C3		1254	12.62E+6	11.52E+6	-6.222E+6	119.3E+6
			1275	12.62E+6	11.52E+6	-6.222E+6	128.5E+6
2380	C3		1254	-13.30E+6	17.65E+6	7.737E+6	249.7E+6
			1255	-13.30E+6	17.65E+6	7.737E+6	192.8E+6
2381	C3		814	31.09E+6	-43.53E+6	-314300.	327.1E+6
			1255	31.09E+6	-43.53E+6	-314300.	326.8E+6
2382	C3		1255	14.68E+6	14.54E+6	-7.779E+6	140.3E+6
			1276	14.68E+6	14.54E+6	-7.779E+6	156.1E+6
2383	C3		1255	-15.74E+6	26.95E+6	11.01E+6	279.6E+6
			1256	-15.74E+6	26.95E+6	11.01E+6	228.8E+6
2384	C3		815	43.51E+6	-61.47E+6	-646700.	458.9E+6
			1256	43.51E+6	-61.47E+6	-646700.	458.6E+6
2385	C3		1256	16.85E+6	20.27E+6	-11.22E+6	164.6E+6
			1277	16.85E+6	20.27E+6	-11.22E+6	198.7E+6
2386	C3		1256	-18.13E+6	38.69E+6	16.77E+6	299.9E+6
			1257	-18.13E+6	38.69E+6	16.77E+6	282.2E+6
2387	C3		816	71.81E+6	-70.19E+6	36990.	620.9E+6
			1257	71.81E+6	-70.19E+6	36990.	617.6E+6
2388	C3		1257	17.57E+6	42.39E+6	-19.37E+6	234.3E+6
			1278	17.57E+6	42.39E+6	-19.37E+6	317.6E+6
2389	C3		1257	-17.64E+6	41.83E+6	19.42E+6	232.7E+6
			1258	-17.64E+6	41.83E+6	19.42E+6	314.3E+6
2390	C3		817	120.2E+6	-31.96E+6	-427200.	683.1E+6
			1258	120.2E+6	-31.96E+6	-427200.	669.2E+6
2391	C3		1258	12.95E+6	99.67E+6	-3.833E+6	438.7E+6
			1279	12.95E+6	99.67E+6	-3.833E+6	578.6E+6
2392	C3		1258	-9.120E+6	-8.139E+6	-7.139E+6	110.8E+6
			1259	-9.120E+6	-8.139E+6	-7.139E+6	55.22E+6
2393	C3		818	88.17E+6	3.051E+6	654900.	413.8E+6
			1259	88.17E+6	3.051E+6	654900.	411.3E+6
2394	C3		1259	7.732E+6	49.60E+6	8.816E+6	207.9E+6
			1280	7.732E+6	49.60E+6	8.816E+6	321.8E+6
2395	C3		1259	-7.262E+6	-613000.	-1.220E+6	32.62E+6
			1260	-7.262E+6	-613000.	-1.220E+6	40.99E+6
2396	C3		819	91.31E+6	1.613E+6	2.608E+6	429.2E+6
			1260	91.31E+6	1.613E+6	2.608E+6	418.2E+6
2397	C3		1260	4.322E+6	52.57E+6	-1.835E+6	212.4E+6
			1281	4.322E+6	52.57E+6	-1.835E+6	328.6E+6
2398	C3		820	-1.565E+6	-6.700E+6	-1.893E+6	37.73E+6
			1261	-1.565E+6	-6.700E+6	-1.893E+6	38.95E+6
2399	C3		1261	-1.235E+6	-1.269E+6	3.738E+6	18.81E+6
			1282	-1.235E+6	-1.269E+6	3.738E+6	14.27E+6
2400	C3		1261	924400.	5.026E+6	-3.769E+6	37.19E+6
			1262	924400.	5.026E+6	-3.769E+6	23.18E+6
2401	C3		821	-8.439E+6	-14.19E+6	-723900.	99.66E+6
			1262	-8.439E+6	-14.19E+6	-723900.	100.2E+6
2402	C3		1262	-1.474E+6	-5.035E+6	5.058E+6	36.09E+6
			1283	-1.474E+6	-5.035E+6	5.058E+6	35.58E+6
2403	C3		1262	461200.	9.548E+6	-6.296E+6	60.63E+6
			1263	461200.	9.548E+6	-6.296E+6	49.94E+6
2404	C3		822	-18.51E+6	-20.60E+6	-138600.	171.1E+6
			1263	-18.51E+6	-20.60E+6	-138600.	171.1E+6
2405	C3		1263	-931200.	-9.823E+6	7.023E+6	57.38E+6
			1284	-931200.	-9.823E+6	7.023E+6	62.61E+6
2406	C3		1263	-65950.	12.74E+6	-9.491E+6	75.63E+6
			1264	-65950.	12.74E+6	-9.491E+6	84.15E+6
2407	C3		823	-34.64E+6	-19.31E+6	188000.	236.5E+6
			1264	-34.64E+6	-19.31E+6	188000.	235.9E+6
2408	C3		1264	-69870.	-16.56E+6	8.245E+6	85.48E+6
			1285	-69870.	-16.56E+6	8.245E+6	100.6E+6
2409	C3		1264	-975800.	10.61E+6	-10.65E+6	52.65E+6
			1265	-975800.	10.61E+6	-10.65E+6	107.0E+6
2410	C3		824	-56.75E+6	4.297E+6	223400.	277.7E+6
			1265	-56.75E+6	4.297E+6	223400.	273.6E+6
2411	C3		1265	1.673E+6	-22.17E+6	3.578E+6	104.0E+6
			1286	1.673E+6	-22.17E+6	3.578E+6	143.2E+6
2412	C3		1265	-3.449E+6	-14.49E+6	965800.	135.0E+6
			1266	-3.449E+6	-14.49E+6	965800.	67.68E+6
2413	C3		825	-49.85E+6	37.23E+6	-150800.	379.5E+6
			1266	-49.85E+6	37.23E+6	-150800.	379.1E+6
2414	C3		1266	3.973E+6	-19.64E+6	-3.500E+6	99.47E+6
			1287	3.973E+6	-19.64E+6	-3.500E+6	139.8E+6
2415	C3		1266	-6.170E+6	-26.29E+6	7.804E+6	163.6E+6
			1267	-6.170E+6	-26.29E+6	7.804E+6	137.1E+6
2416	C3		826	-33.72E+6	53.36E+6	-237300.	379.9E+6
			1267	-33.72E+6	53.36E+6	-237300.	379.9E+6
2417	C3		1267	5.370E+6	-14.91E+6	-6.101E+6	90.83E+6
			1288	5.370E+6	-14.91E+6	-6.101E+6	115.5E+6
2418	C3		1267	-6.531E+6	-29.87E+6	7.621E+6	182.0E+6
			1268	-6.531E+6	-29.87E+6	7.621E+6	180.2E+6
2419	C3		827	-17.95E+6	55.13E+6	327800.	321.6E+6
			1268	-17.95E+6	55.13E+6	327800.	321.9E+6
2420	C3		1268	5.553E+6	-9.213E+6	-5.504E+6	68.66E+6
			1289	5.553E+6	-9.213E+6	-5.504E+6	80.20E+6
2421	C3		1268	-6.199E+6	-27.49E+6	4.858E+6	181.9E+6
			1269	-6.199E+6	-27.49E+6	4.858E+6	203.9E+6
2422	C3		828	-7.319E+6	49.33E+6	817500.	252.4E+6
			1269	-7.319E+6	49.33E+6	817500.	252.9E+6
2423	C3		1269	5.355E+6	-4.343E+6	-4.023E+6	44.63E+6
			1290	5.355E+6	-4.343E+6	-4.023E+6	50.48E+6
2424	C3		1269	-5.992E+6	-23.30E+6	2.878E+6	177.8E+6
			1270	-5.992E+6	-23.30E+6	2.878E+6	212.8E+6
2425	C3		829	-542800.	41.06E+6	1.058E+6	188.5E+6
			1270	-542800.	41.06E+6	1.058E+6	189.3E+6
2426	C3		1270	5.257E+6	-778000.	-3.102E+6	27.23E+6
			1291	5.257E+6	-778000.	-3.102E+6	31.11E+6
2427	C3		1270	-6.106E+6	-19.17E+6	2.109E+6	173.6E+6
			1271	-6.106E+6	-19.17E+6	2.109E+6	219.4E+6
2428	C3		830	4.281E+6	30.55E+6	1.067E+6	157.8E+6
			1271	4.281E+6	30.55E+6	1.067E+6	157.2E+6
2429	C3		1271	5.401E+6	2.292E+6	-2.728E+6	31.13E+6
			1292	5.401E+6	2.292E+6	-2.728E+6	40.25E+6
2430	C3		1271	-6.573E+6	-12.65E+6	2.222E+6	156.6E+6
			1272	-6.573E+6	-12.65E+6	2.222E+6	212.7E+6
2431	C3		831	8.245E+6	17.07E+6	903600.	113.6E+6
			1272	8.245E+6	17.07E+6	903600.	113.0E+6
2432	C3		1272	5.770E+6	3.677E+6	-2.898E+6	40.41E+6
			1293	5.770E+6	3.677E+6	-2.898E+6	50.40E+6
2433	C3		1272	-7.280E+6	-5.027E+6	2.904E+6	154.5E+6
			1273	-7.280E+6	-5.027E+6	2.904E+6	194.9E+6
2434	C3		832	12.00E+6	1.766E+6	609900.	64.21E+6
			1273	12.00E+6	1.766E+6	609900.	63.81E+6
2435	C3		1273	6.309E+6	5.359E+6	-3.583E+6	51.23E+6
			1294	6.309E+6	5.359E+6	-3.583E+6	62.81E+6
2436	C3		1273	-8.216E+6	3.097E+6	3.972E+6	195.4E+6
			1274	-8.216E+6	3.097E+6	3.972E+6	168.9E+6
2437	C3		833	15.84E+6	-14.66E+6	186200.	135.1E+6
			1274	15.84E+6	-14.66E+6	186200.	135.3E+6
2438	C3		1274	6.991E+6	7.082E+6	-4.380E+6	62.31E+6
			1295	6.991E+6	7.082E+6	-4.380E+6	76.29E+6
2439	C3		1274	-9.388E+6	11.71E+6	5.290E+6	232.3E+6
			1275	-9.388E+6	11.71E+6	5.290E+6	166.2E+6
2440	C3		834	19.81E+6	-32.58E+6	-355600.	230.8E+6
			1275	19.81E+6	-32.58E+6	-355600.	230.6E+6
2441	C3		1275	7.821E+6	8.697E+6	-5.157E+6	72.75E+6
			1296	7.821E+6	8.697E+6	-5.157E+6	90.35E+6
2442	C3		1275	-10.86E+6	21.22E+6	6.673E+6	267.7E+6
			1276	-10.86E+6	21.22E+6	6.673E+6	202.1E+6
2443	C3		835	23.84E+6	-53.38E+6	-915500.	340.4E+6
			1276	23.84E+6	-53.38E+6	-915500.	339.6E+6
2444	C3		1276	8.788E+6	9.916E+6	-5.436E+6	79.35E+6
			1297	8.788E+6	9.916E+6	-5.436E+6	103.4E+6
2445	C3		1276	-12.68E+6	32.32E+6	7.719E+6	305.7E+6
			1277	-12.68E+6	32.32E+6	7.719E+6	236.4E+6
2446	C3		836	28.00E+6	-80.94E+6	-1.170E+6	478.7E+6
			1277	28.00E+6	-80.94E+6	-1.170E+6	479.8E+6
2447	C3		1277	9.530E+6	8.791E+6	-2.932E+6	67.41E+6
			1298	9.530E+6	8.791E+6	-2.932E+6	105.3E+6
2448	C3		1277	-14.16E+6	52.30E+6	7.352E+6	365.1E+6
			1278	-14.16E+6	52.30E+6	7.352E+6	303.5E+6
2449	C3		837	32.65E+6	-118.4E+6	438900.	677.4E+6
			1278	32.65E+6	-118.4E+6	438900.	664.2E+6
2450	C3		1278	8.947E+6	-8.046E+6	7.407E+6	110.7E+6
			1299	8.947E+6	-8.046E+6	7.407E+6	55.78E+6
2451	C3		1278	-12.90E+6	99.05E+6	3.748E+6	436.5E+6
			1279	-12.90E+6	99.05E+6	3.748E+6	574.2E+6
2452	C3		838	34.95E+6	-34.47E+6	-10150.	414.3E+6
			1279	34.95E+6	-34.47E+6	-10150.	479.7E+6
2453	C3		1279	5.915E+6	-60.89E+6	-45430.	376.5E+6
			1300	5.915E+6	-60.89E+6	-45430.	257.3E+6
2454	C3		1279	-5.984E+6	-60.84E+6	160500.	374.6E+6
			1280	-5.984E+6	-60.84E+6	160500.	258.2E+6
2455	C3		839	30.29E+6	27.47E+6	367400.	255.2E+6
			1280	30.29E+6	27.47E+6	367400.	257.7E+6
2456	C3		1280	2.002E+6	-17.78E+6	-4.887E+6	157.8E+6
			1301	2.002E+6	-17.78E+6	-4.887E+6	65.14E+6
2457	C3		1280	-3.144E+6	6.274E+6	-2.789E+6	69.79E+6
			1281	-3.144E+6	6.274E+6	-2.789E+6	27.29E+6
2458	C3		840	23.85E+6	5.345E+6	326900.	165.2E+6
			1281	23.85E+6	5.345E+6	326900.	175.0E+6
2459	C3		1281	-39290.	-23.98E+6	4.713E+6	202.3E+6
			1302	-39290.	-23.98E+6	4.713E+6	76.48E+6
2460	C3		841	-3.268E+6	-4.848E+6	-1.104E+6	36.45E+6
			1282	-3.268E+6	-4.848E+6	-1.104E+6	37.18E+6
2461	C3		1282	-1.713E+6	-1.523E+6	2.343E+6	14.82E+6
			1303	-1.713E+6	-1.523E+6	2.343E+6	17.82E+6
2462	C3		1282	2.058E+6	3.588E+6	-3.260E+6	31.69E+6
			1283	2.058E+6	3.588E+6	-3.260E+6	22.72E+6
2463	C3		842	-8.360E+6	-8.725E+6	-95460.	75.52E+6
			1283	-8.360E+6	-8.725E+6	-95460.	75.59E+6
2464	C3		1283	-2.308E+6	-3.570E+6	3.407E+6	24.06E+6
			1304	-2.308E+6	-3.570E+6	3.407E+6	32.42E+6
2465	C3		1283	1.597E+6	5.456E+6	-5.257E+6	38.87E+6
			1284	1.597E+6	5.456E+6	-5.257E+6	37.44E+6
2466	C3		843	-14.94E+6	-9.394E+6	526700.	107.4E+6
			1284	-14.94E+6	-9.394E+6	526700.	107.1E+6
2467	C3		1284	-1.856E+6	-5.741E+6	4.423E+6	30.42E+6
			1305	-1.856E+6	-5.741E+6	4.423E+6	45.15E+6
2468	C3		1284	1.148E+6	4.709E+6	-6.756E+6	32.68E+6
			1285	1.148E+6	4.709E+6	-6.756E+6	43.38E+6
2469	C3		844	-23.04E+6	-3.378E+6	809900.	118.9E+6
			1285	-23.04E+6	-3.378E+6	809900.	118.5E+6
2470	C3		1285	-1.168E+6	-7.698E+6	4.278E+6	33.17E+6
			1306	-1.168E+6	-7.698E+6	4.278E+6	56.54E+6
2471	C3		1285	287200.	-746400.	-5.532E+6	31.36E+6
			1286	287200.	-746400.	-5.532E+6	27.08E+6
2472	C3		845	-29.59E+6	11.09E+6	539400.	178.6E+6
			1286	-29.59E+6	11.09E+6	539400.	179.7E+6
2473	C3		1286	309900.	-8.400E+6	1.903E+6	29.41E+6
			1307	309900.	-8.400E+6	1.903E+6	59.78E+6
2474	C3		1286	-2.084E+6	-10.55E+6	23710.	77.93E+6
			1287	-2.084E+6	-10.55E+6	23710.	43.18E+6
2475	C3		846	-27.32E+6	28.33E+6	-158800.	242.9E+6
			1287	-27.32E+6	28.33E+6	-158800.	242.8E+6
2476	C3		1287	2.341E+6	-8.194E+6	-1.282E+6	34.55E+6
			1308	2.341E+6	-8.194E+6	-1.282E+6	66.68E+6
2477	C3		1287	-4.407E+6	-18.68E+6	3.982E+6	122.3E+6
			1288	-4.407E+6	-18.68E+6	3.982E+6	99.39E+6
2478	C3		847	-21.47E+6	40.46E+6	-465500.	271.3E+6
			1288	-21.47E+6	40.46E+6	-465500.	271.0E+6
2479	C3		1288	3.474E+6	-7.190E+6	-3.051E+6	37.97E+6
			1309	3.474E+6	-7.190E+6	-3.051E+6	64.13E+6
2480	C3		1288	-4.706E+6	-23.08E+6	4.812E+6	151.7E+6
			1289	-4.706E+6	-23.08E+6	4.812E+6	148.6E+6
2481	C3		848	-13.84E+6	45.44E+6	-60850.	261.5E+6
			1289	-13.84E+6	45.44E+6	-60850.	261.5E+6
2482	C3		1289	3.429E+6	-5.182E+6	-3.214E+6	32.04E+6
			1310	3.429E+6	-5.182E+6	-3.214E+6	49.94E+6
2483	C3		1289	-4.271E+6	-23.78E+6	3.790E+6	164.0E+6
			1290	-4.271E+6	-23.78E+6	3.790E+6	179.7E+6
2484	C3		849	-6.881E+6	44.42E+6	384300.	228.6E+6
			1290	-6.881E+6	44.42E+6	384300.	228.8E+6
2485	C3		1290	3.037E+6	-2.850E+6	-2.583E+6	22.09E+6
			1311	3.037E+6	-2.850E+6	-2.583E+6	33.04E+6
2486	C3		1290	-3.919E+6	-21.93E+6	2.578E+6	167.0E+6
			1291	-3.919E+6	-21.93E+6	2.578E+6	197.7E+6
2487	C3		850	-1.604E+6	39.14E+6	605100.	184.0E+6
			1291	-1.604E+6	39.14E+6	605100.	184.4E+6
2488	C3		1291	2.800E+6	-976500.	-1.893E+6	15.15E+6
			1312	2.800E+6	-976500.	-1.893E+6	20.52E+6
2489	C3		1291	-3.873E+6	-18.39E+6	1.986E+6	162.7E+6
			1292	-3.873E+6	-18.39E+6	1.986E+6	206.6E+6
2490	C3		851	2.351E+6	30.06E+6	573400.	146.4E+6
			1292	2.351E+6	30.06E+6	573400.	146.1E+6
2491	C3		1292	2.884E+6	29630.	-1.858E+6	14.22E+6
			1313	2.884E+6	29630.	-1.858E+6	18.29E+6
2492	C3		1292	-4.182E+6	-12.95E+6	2.129E+6	148.2E+6
			1293	-4.182E+6	-12.95E+6	2.129E+6	204.9E+6
2493	C3		852	5.605E+6	16.60E+6	343800.	100.2E+6
			1293	5.605E+6	16.60E+6	343800.	100.1E+6
2494	C3		1293	3.229E+6	1.893E+6	-2.204E+6	18.65E+6
			1314	3.229E+6	1.893E+6	-2.204E+6	29.28E+6
2495	C3		1293	-4.680E+6	-4.450E+6	2.739E+6	147.9E+6
			1294	-4.680E+6	-4.450E+6	2.739E+6	183.3E+6
2496	C3		853	8.521E+6	69970.	-35620.	41.47E+6
			1294	8.521E+6	69970.	-35620.	41.48E+6
2497	C3		1294	3.745E+6	3.168E+6	-2.537E+6	25.66E+6
			1315	3.745E+6	3.168E+6	-2.537E+6	38.98E+6
2498	C3		1294	-5.363E+6	4.396E+6	3.669E+6	190.0E+6
			1295	-5.363E+6	4.396E+6	3.669E+6	152.4E+6
2499	C3		854	11.21E+6	-17.95E+6	-558000.	129.9E+6
			1295	11.21E+6	-17.95E+6	-558000.	129.5E+6
2500	C3		1295	4.448E+6	4.176E+6	-3.072E+6	32.19E+6
			1316	4.448E+6	4.176E+6	-3.072E+6	48.53E+6
2501	C3		1295	-6.230E+6	13.97E+6	4.732E+6	228.1E+6
			1296	-6.230E+6	13.97E+6	4.732E+6	157.6E+6
2502	C3		855	13.45E+6	-37.55E+6	-1.191E+6	226.6E+6
			1296	13.45E+6	-37.55E+6	-1.191E+6	225.8E+6
2503	C3		1296	5.370E+6	4.881E+6	-3.449E+6	38.18E+6
			1317	5.370E+6	4.881E+6	-3.449E+6	57.61E+6
2504	C3		1296	-7.321E+6	24.46E+6	5.455E+6	262.0E+6
			1297	-7.321E+6	24.46E+6	5.455E+6	194.4E+6
2505	C3		856	14.29E+6	-58.95E+6	-1.793E+6	326.2E+6
			1297	14.29E+6	-58.95E+6	-1.793E+6	325.0E+6
2506	C3		1297	6.523E+6	4.636E+6	-2.996E+6	40.84E+6
			1318	6.523E+6	4.636E+6	-2.996E+6	62.81E+6
2507	C3		1297	-8.622E+6	36.35E+6	4.559E+6	290.8E+6
			1298	-8.622E+6	36.35E+6	4.559E+6	232.1E+6
2508	C3		857	10.94E+6	-80.42E+6	-1.924E+6	409.0E+6
			1298	10.94E+6	-80.42E+6	-1.924E+6	408.0E+6
2509	C3		1298	7.577E+6	2.103E+6	-912000.	33.96E+6
			1319	7.577E+6	2.103E+6	-912000.	54.86E+6
2510	C3		1298	-9.431E+6	50.02E+6	-782700.	299.8E+6
			1299	-9.431E+6	50.02E+6	-782700.	282.3E+6
2511	C3		858	-3.184E+6	-86.18E+6	-651000.	404.9E+6
			1299	-3.184E+6	-86.18E+6	-651000.	403.3E+6
2512	C3		1299	7.107E+6	-981300.	1.632E+6	33.98E+6
			1320	7.107E+6	-981300.	1.632E+6	41.61E+6
2513	C3		1299	-7.634E+6	48.77E+6	-9.162E+6	204.7E+6
			1300	-7.634E+6	48.77E+6	-9.162E+6	315.8E+6
2514	C3		859	-28.17E+6	-29.83E+6	-443600.	256.0E+6
			1300	-28.17E+6	-29.83E+6	-443600.	258.9E+6
2515	C3		1300	3.105E+6	5.153E+6	2.909E+6	64.86E+6
			1321	3.105E+6	5.153E+6	2.909E+6	30.18E+6
2516	C3		1300	-2.042E+6	-17.39E+6	5.028E+6	154.2E+6
			1301	-2.042E+6	-17.39E+6	5.028E+6	64.24E+6
2517	C3		860	-22.50E+6	21.67E+6	-62190.	193.9E+6
			1301	-22.50E+6	21.67E+6	-62190.	195.0E+6
2518	C3		1301	-2.095E+6	-14.55E+6	7.475E+6	79.41E+6
			1322	-2.095E+6	-14.55E+6	7.475E+6	90.39E+6
2519	C3		1301	2.108E+6	-13.85E+6	-7.599E+6	76.02E+6
			1302	2.108E+6	-13.85E+6	-7.599E+6	87.02E+6
2520	C3		861	-33.18E+6	16.30E+6	288000.	218.8E+6
			1302	-33.18E+6	16.30E+6	288000.	216.4E+6
2521	C3		1302	-2.987E+6	-29.01E+6	7.697E+6	150.1E+6
			1323	-2.987E+6	-29.01E+6	7.697E+6	161.4E+6
2522	C3		862	-2.447E+6	-2.774E+6	-71890.	24.07E+6
			1303	-2.447E+6	-2.774E+6	-71890.	24.12E+6
2523	C3		1303	1.638E+6	1.810E+6	-2.287E+6	19.11E+6
			1304	1.638E+6	1.810E+6	-2.287E+6	15.58E+6
2524	C3		863	-4.822E+6	-3.716E+6	935300.	38.88E+6
			1304	-4.822E+6	-3.716E+6	935300.	38.26E+6
2525	C3		1304	1.359E+6	1.573E+6	-3.871E+6	16.54E+6
			1305	1.359E+6	1.573E+6	-3.871E+6	21.09E+6
2526	C3		864	-7.537E+6	-1.299E+6	1.751E+6	41.58E+6
			1305	-7.537E+6	-1.299E+6	1.751E+6	40.44E+6
2527	C3		1305	1.188E+6	-835900.	-4.667E+6	22.38E+6
			1306	1.188E+6	-835900.	-4.667E+6	18.22E+6
2528	C3		865	-10.04E+6	5.193E+6	1.919E+6	67.44E+6
			1306	-10.04E+6	5.193E+6	1.919E+6	68.70E+6
2529	C3		1306	790300.	-5.210E+6	-3.502E+6	39.43E+6
			1307	790300.	-5.210E+6	-3.502E+6	25.50E+6
2530	C3		866	-11.35E+6	14.79E+6	1.135E+6	114.7E+6
			1307	-11.35E+6	14.79E+6	1.135E+6	115.4E+6
2531	C3		1307	-771400.	-10.33E+6	-637000.	62.66E+6
			1308	-771400.	-10.33E+6	-637000.	41.85E+6
2532	C3		867	-10.75E+6	25.14E+6	-314100.	158.3E+6
			1308	-10.75E+6	25.14E+6	-314100.	158.0E+6
2533	C3		1308	-2.308E+6	-15.20E+6	2.230E+6	99.40E+6
			1309	-2.308E+6	-15.20E+6	2.230E+6	84.85E+6
2534	C3		868	-9.450E+6	33.91E+6	-1.116E+6	192.5E+6
			1309	-9.450E+6	33.91E+6	-1.116E+6	191.7E+6
2535	C3		1309	-2.366E+6	-19.05E+6	2.982E+6	126.6E+6
			1310	-2.366E+6	-19.05E+6	2.982E+6	125.2E+6
2536	C3		869	-6.822E+6	39.34E+6	-792500.	206.0E+6
			1310	-6.822E+6	39.34E+6	-792500.	205.5E+6
2537	C3		1310	-1.957E+6	-20.90E+6	2.418E+6	144.2E+6
			1311	-1.957E+6	-20.90E+6	2.418E+6	157.7E+6
2538	C3		870	-3.754E+6	40.45E+6	-292900.	198.5E+6
			1311	-3.754E+6	40.45E+6	-292900.	198.3E+6
2539	C3		1311	-1.657E+6	-20.41E+6	1.636E+6	152.4E+6
			1312	-1.657E+6	-20.41E+6	1.636E+6	180.3E+6
2540	C3		871	-1.189E+6	37.16E+6	-44810.	173.5E+6
			1312	-1.189E+6	37.16E+6	-44810.	173.6E+6
2541	C3		1312	-1.588E+6	-18.10E+6	1.223E+6	151.4E+6
			1313	-1.588E+6	-18.10E+6	1.223E+6	195.3E+6
2542	C3		872	625700.	28.25E+6	-141700.	132.5E+6
			1313	625700.	28.25E+6	-141700.	132.5E+6
2543	C3		1313	-1.803E+6	-11.31E+6	1.764E+6	129.1E+6
			1314	-1.803E+6	-11.31E+6	1.764E+6	187.6E+6
2544	C3		873	2.690E+6	13.83E+6	-517800.	75.74E+6
			1314	2.690E+6	13.83E+6	-517800.	76.06E+6
2545	C3		1314	-2.116E+6	-2.764E+6	2.314E+6	142.8E+6
			1315	-2.116E+6	-2.764E+6	2.314E+6	164.0E+6
2546	C3		874	4.334E+6	-3.883E+6	-1.097E+6	38.94E+6
			1315	4.334E+6	-3.883E+6	-1.097E+6	38.24E+6
2547	C3		1315	-2.559E+6	7.070E+6	3.203E+6	187.8E+6
			1316	-2.559E+6	7.070E+6	3.203E+6	127.8E+6
2548	C3		875	5.673E+6	-23.85E+6	-1.866E+6	133.9E+6
			1316	5.673E+6	-23.85E+6	-1.866E+6	132.6E+6
2549	C3		1316	-3.130E+6	17.91E+6	4.245E+6	228.5E+6
			1317	-3.130E+6	17.91E+6	4.245E+6	155.9E+6
2550	C3		876	6.556E+6	-45.40E+6	-2.757E+6	234.8E+6
			1317	6.556E+6	-45.40E+6	-2.757E+6	233.0E+6
2551	C3		1317	-3.855E+6	29.47E+6	4.977E+6	261.8E+6
			1318	-3.855E+6	29.47E+6	4.977E+6	196.3E+6
2552	C3		877	6.184E+6	-67.12E+6	-3.551E+6	331.7E+6
			1318	6.184E+6	-67.12E+6	-3.551E+6	329.3E+6
2553	C3		1318	-4.729E+6	40.68E+6	4.553E+6	280.7E+6
			1319	-4.729E+6	40.68E+6	4.553E+6	231.9E+6
2554	C3		878	3.103E+6	-85.13E+6	-3.609E+6	399.9E+6
			1319	3.103E+6	-85.13E+6	-3.609E+6	398.6E+6
2555	C3		1319	-5.422E+6	50.33E+6	2.641E+6	270.0E+6
			1320	-5.422E+6	50.33E+6	2.641E+6	267.2E+6
2556	C3		879	-1.947E+6	-88.42E+6	-2.494E+6	415.5E+6
			1320	-1.947E+6	-88.42E+6	-2.494E+6	408.2E+6
2557	C3		1320	-4.256E+6	50.75E+6	1.472E+6	205.1E+6
			1321	-4.256E+6	50.75E+6	1.472E+6	317.2E+6
2558	C3		880	-6.228E+6	-23.45E+6	-403900.	165.6E+6
			1321	-6.228E+6	-23.45E+6	-403900.	174.6E+6
2559	C3		1321	-20890.	-22.67E+6	-4.469E+6	193.3E+6
			1322	-20890.	-22.67E+6	-4.469E+6	71.71E+6
2560	C3		881	-17.07E+6	31.89E+6	-394700.	216.6E+6
			1322	-17.07E+6	31.89E+6	-394700.	213.6E+6
2561	C3		1322	2.981E+6	-28.37E+6	-7.621E+6	147.3E+6
			1323	2.981E+6	-28.37E+6	-7.621E+6	157.6E+6
2562	C3		882	-28.69E+6	27.84E+6	-34650.	275.1E+6
			1323	-28.69E+6	27.84E+6	-34650.	253.4E+6
2563	C3		1326	2.187E+6	2.729E+6	4.048E+6	93.64E+6
			803	2.187E+6	2.729E+6	4.048E+6	138.3E+6
2564	C3		1326	202700.	5.443E+6	1.089E+6	174.6E+6
			783	202700.	5.443E+6	1.089E+6	274.0E+6
2565	C3		1326	-903200.	1.408E+6	-1.211E+6	54.94E+6
			781	-903200.	1.408E+6	-1.211E+6	46.00E+6
2566	C3		1326	-1.542E+6	3.946E+6	-3.865E+6	132.8E+6
			761	-1.542E+6	3.946E+6	-3.865E+6	200.1E+6
2567	C3		1325	-171500.	7.346E+6	-1.169E+6	241.2E+6
			563	-171500.	7.346E+6	-1.169E+6	363.0E+6
2568	C3		1325	-2.322E+6	4.521E+6	-4.197E+6	154.2E+6
			543	-2.322E+6	4.521E+6	-4.197E+6	209.7E+6
2569	C3		1325	1.498E+6	5.861E+6	3.917E+6	199.7E+6
			541	1.498E+6	5.861E+6	3.917E+6	286.6E+6
2570	C3		1325	1.051E+6	3.213E+6	1.387E+6	116.6E+6
			521	1.051E+6	3.213E+6	1.387E+6	119.0E+6
2571	C3		1324	-19950.	243100.	-53440.	42.29E+6
			442	-19950.	243100.	-53440.	34.58E+6
2572	C3		1324	-2.258E+6	438400.	-5.490E+6	41.25E+6
			444	-2.258E+6	438400.	-5.490E+6	92.63E+6
2573	C3		1324	71160.	3.335E+6	162500.	146.5E+6
			486	71160.	3.335E+6	162500.	224.2E+6
2574	C3		1324	2.160E+6	370400.	5.445E+6	37.55E+6
			484	2.160E+6	370400.	5.445E+6	87.52E+6
2575	C3		1327	17220.	330300.	46770.	60.85E+6
			882	17220.	330300.	46770.	50.37E+6
2576	C3		1327	3.670E+6	986800.	8.431E+6	79.29E+6
			840	3.670E+6	986800.	8.431E+6	160.8E+6
2577	C3		1327	-64250.	4.678E+6	-145900.	228.1E+6
			838	-64250.	4.678E+6	-145900.	343.6E+6
2578	C3		1327	-3.582E+6	926300.	-8.390E+6	75.91E+6
			880	-3.582E+6	926300.	-8.390E+6	155.6E+6
END_TABLE
